Cd S 
 1.0000000000000000
    12.3977854500000007    0.0000000000000000    0.0000000000000000
    -6.1988927199999999   10.7367971499999992    0.0000000000000000
     0.0000000000000000    0.0000000000000000   13.4479464199999992
 Cd  S  
  36  36
Cartesian
  0.0297417900000000  2.4510639099999998  0.0119684000000000
  4.1476880500000002  2.4382755299999999  0.0422997100000000
  8.2528468000000004  2.3898939100000001 13.4394974800000000
 -1.9791493000000000  6.0785660899999998  0.1823856200000000
  2.1710604600000001  6.1000620200000002 13.3766212000000007
  6.1676973000000004  5.9532480200000002 13.4332314099999994
 -4.1853346000000000  9.3690038100000006 13.3466095500000002
 -0.0887328100000000  9.5857545200000001  0.0067444100000000
  4.0694437099999998  9.6928681300000008 13.4452376000000005
 -0.1367718100000000  2.5602340500000000  6.7424797400000003
  4.1877577500000003  2.3688152100000002  6.8313944600000003
  8.2897416800000006  2.5877648099999999  6.7746643000000004
 -2.1576490800000001  6.1039144900000002  6.6911350699999996
  2.0313398899999999  6.0183174099999999  6.9334897900000003
  6.1501494100000000  5.8785644699999997  6.6273190499999997
 -3.9728548500000000  9.5646934300000002  6.6627718700000003
  0.0254722500000000  9.4783305000000002  6.8379600199999997
  4.1818251699999998  9.4810506700000001  6.7251546099999997
  2.0963669000000000  1.2136148600000001  3.3735940699999998
  6.1827081599999998  1.1896588100000001  3.3411566800000001
 10.1588686900000003  1.1738350300000000  3.2558675199999998
 -0.1851121400000000  4.8104249399999999  3.2378877500000001
  4.1774887300000003  4.6954124799999999  3.1685005099999999
  8.3440166399999995  4.7002362000000000  3.5716512499999999
 -2.1522037900000002  8.2805899899999993  3.3884731399999999
  2.0811885999999999  8.3858446400000002  3.3628609900000002
  6.3299240599999997  8.3659877900000001  3.2293091700000001
  2.1459868599999998  1.1486472500000000 10.0779003300000003
  6.1807570600000004  1.2693081300000000 10.1023059300000000
 10.3298867199999993  1.2066760999999999 10.0833187700000000
  0.1198435100000000  4.6078355400000000 10.2046566300000006
  3.9237020999999999  4.8627235600000001 10.1638024500000004
  8.2676600400000009  4.7700775599999998 10.0895969500000007
 -2.0211193999999999  8.3914336800000005 10.0753043299999998
  2.1751848300000001  8.4179273699999992 10.1147752700000009
  6.2300768199999998  8.5028857099999993 10.1090773699999996
 -0.1197342200000000  2.2155022299999998  2.5224652000000001
  3.9877242000000002  2.4038133099999999  2.4825998399999998
  8.3716752299999992  2.3061466700000000  2.5451388399999999
 -2.1201589900000002  5.9911861699999998  2.5492708600000000
  2.1978985000000000  6.0274008500000003  2.4847632100000001
  6.2157526000000001  6.0025928400000002  2.5709294499999999
 -4.2502476099999997  9.4186770699999993  2.5933436799999998
  0.0664596400000000  9.6557052900000002  2.5607574199999998
  4.1203638299999996  9.6333430100000008  2.4143161399999999
  0.0373872000000000  2.3755181900000002  9.2423683899999993
  4.2256656000000001  2.3734509300000002  9.2783979900000002
  8.4627640500000005  2.4583123200000001  9.2274144099999997
 -2.0541626599999998  5.9590832599999999  9.3118513699999994
  2.0605744900000000  5.9639065499999999  9.2881270399999991
  6.2483310699999999  5.9342766400000002  9.1922324300000007
 -4.1558835399999996  9.5591469100000008  9.2302712899999992
 -0.0488079700000000  9.4906992900000002  9.2362398900000002
  4.2824441699999998  9.5985972299999993  9.2369619099999998
  2.0908769700000001  1.1488280600000000  5.8372076899999996
  6.1549772899999997  1.2022180700000000  5.8921578800000001
 10.3331878199999991  1.2342431500000000  5.8910998000000001
  0.0023601700000000  4.7598515099999998  5.8774807899999999
  4.1831679099999999  4.7308003200000002  5.9272589000000000
  8.2156920000000007  4.7488599300000001  5.9583329400000000
 -2.0726427400000000  8.3838313800000002  5.9104435899999999
  2.0448402799999998  8.3510526899999995  5.9514228500000002
  6.2017692599999998  8.3567401900000000  5.9013800800000000
  2.0797291900000001  1.1955276500000001 12.6252218999999997
  5.9987532300000002  1.2101374300000001 12.6837932200000001
 10.3248716900000002  1.1881720899999999 12.6260957499999993
  0.1624045400000000  4.8287117500000001 12.5166119800000004
  4.2371433400000003  4.6901747499999997 12.5832994100000004
  8.2891367299999992  4.7538147500000001 12.6789588200000001
 -2.1013883000000000  8.3932579700000005 12.4394749699999991
  1.9764104499999999  8.2324097999999992 12.5172967499999999
  6.0834888700000000  8.2202844099999997 12.5243838200000006
