Cd S 
 1.0000000000000000
    12.3977854500000007    0.0000000000000000    0.0000000000000000
    -6.1988927199999999   10.7367971499999992    0.0000000000000000
     0.0000000000000000    0.0000000000000000   13.4479464199999992
 Cd  S  
  36  36
Cartesian
  0.0641260600000000  2.3171447000000001  0.0401856900000000
  4.1284001999999997  2.3864150799999999 13.4478738000000000
  8.2211605399999996  2.3766509299999998 13.4098544400000002
 -1.9804104700000000  6.0714550000000003 13.3119831099999999
  2.0572102299999999  5.9558419200000001  0.0209393900000000
  6.0862474400000002  5.9098000700000002  0.1400712500000000
 -4.1119256999999996  9.7509393899999992 13.3597604400000005
  0.0147102900000000  9.5489729299999997  0.0083913800000000
  3.9423740899999999  9.6613659399999996 13.3855346399999995
  0.0058119600000000  2.3523117899999999  6.7313806100000004
  4.2569466299999998  2.4521309300000000  6.8343924200000004
  8.2283983000000003  2.3441204700000000  6.4966745399999999
 -2.1577875700000000  5.8023457699999996  6.7045281499999998
  2.1257166700000001  5.9927932600000000  6.7149388800000001
  6.0968923000000004  5.8205603200000002  6.6589284500000003
 -4.0248121000000001  9.3953515900000006  6.5905258800000004
 -0.0480731500000000  9.6272986199999995  6.6806115200000002
  4.2325042799999997  9.6365238899999994  6.6586812799999997
  2.0172087099999998  1.1737127400000000  3.3778116100000002
  6.1375122800000002  1.3180086300000000  3.3325963900000000
 10.3111016600000003  1.1881526499999999  3.3810348100000001
 -0.0185307800000000  4.7757635599999997  3.3695614300000001
  4.1326853699999999  4.7717440199999999  3.3636440599999999
  8.4489711500000002  4.7416416899999998  3.2199729300000000
 -2.0347590100000001  8.4418771899999996  3.4505292299999999
  2.0608295800000000  8.3630467700000004  3.3587355600000000
  6.0164283799999998  8.3779332300000000  3.3589168400000000
  2.0006572299999998  1.1429813400000000 10.0278844500000002
  6.0888889099999997  1.2875225699999999 10.1103452500000000
 10.4219397800000007  1.3647372099999999 10.0713210499999999
 -0.0317055400000000  4.6110604400000001  9.9945568100000006
  4.2164272599999997  4.7952233599999996  9.9148368500000004
  8.2760923399999999  4.8097945900000001 10.1109990799999991
 -1.9640825200000001  8.4354405900000007 10.0771971300000001
  2.1783078300000001  8.4452722799999993 10.0906932200000004
  6.3330569099999998  8.4625280299999996 10.0526206100000000
  0.2206853600000000  2.3153208400000000  2.4410272599999998
  4.0828098199999996  2.3335735000000000  2.5715329900000001
  8.2847003000000008  2.3857056999999999  2.4904589499999998
 -1.9961890700000000  6.0408064899999996  2.4809718300000001
  2.1140656700000000  5.7974257400000004  2.3759101500000002
  6.3855225400000002  5.9415668200000002  2.4680546699999999
 -3.9428893399999998  9.6204898799999992  2.4448369300000001
 -0.1064036200000000  9.6084952700000006  2.5200569399999999
  4.0929577799999999  9.6456231100000007  2.3589672199999998
 -0.0029565000000000  2.3744222900000000  9.2469242800000000
  4.0715015499999998  2.4352256300000001  9.3005505199999998
  8.2333876099999994  2.3837090800000000  9.2666603500000004
 -2.0684476400000000  6.0268358800000001  9.2860826900000006
  2.0490811899999999  5.8811652399999996  9.4159242200000008
  6.1637522599999999  5.9764492699999998  9.1597033200000002
 -4.0970712999999996  9.5550742300000007  9.2629426699999993
  0.0145308900000000  9.6091058700000005  9.2431014400000002
  4.1518904699999997  9.6073800400000007  9.2664396700000005
  1.8330426399999999  1.1992234700000000  5.8210747300000003
  6.2729570299999997  1.2208952700000000  6.0868220199999996
 10.1223637899999996  1.1614595800000000  5.9966649700000003
  0.0132113300000000  4.8673371599999999  5.8907006600000003
  4.2443887299999998  4.5790181900000002  5.8871178600000000
  8.1288174299999998  4.7519919599999998  5.9210918100000001
 -2.0543529700000001  8.3475954399999992  5.8665313399999999
  2.0344623400000001  8.4593236300000001  5.8958876699999996
  6.3824480799999996  8.3857066699999994  5.8772364399999999
  2.0859296299999999  1.1564346500000000 12.6109864399999996
  6.2205313200000001  1.2989400799999999 12.4923112799999991
 10.4178689700000007  1.2591406000000001 12.6821907700000001
  0.1392581900000000  4.8664441800000002 12.6538079299999993
  4.2527167600000002  4.6171897599999996 12.5946572799999998
  8.2694474299999996  4.7406883700000000 12.5799456299999992
 -2.0676922400000000  8.3917183099999999 12.6065657000000009
  1.9881623799999999  8.4624958199999991 12.6311281100000006
  6.1291908900000003  8.3810105000000004 12.7053802699999991
