Cd S 
 1.0000000000000000
    12.3977854500000007    0.0000000000000000    0.0000000000000000
    -6.1988927199999999   10.7367971499999992    0.0000000000000000
     0.0000000000000000    0.0000000000000000   13.4479464199999992
 Cd  S  
  36  36
Cartesian
  0.1231754100000000  2.3825297499999998  0.0650022600000000
  4.2789425400000001  2.4581029499999998 13.3375893399999992
  8.1784174400000005  2.4047173399999999 13.4185450399999997
 -2.0229373499999999  6.1031678500000002 13.4300486800000005
  2.1054615399999999  6.0671627499999996  0.0548978800000000
  6.2703543699999997  6.0117449900000004  0.1475645900000000
 -4.1903184500000004  9.5430274300000004 13.4390516800000004
  0.0282323000000000  9.5165789400000005  0.1079582300000000
  4.0523479699999996  9.7538519600000004  0.0269470000000000
 -0.0137395300000000  2.2683980300000002  6.7345061800000003
  4.1242147600000001  2.3811633900000002  6.7565487099999997
  8.3545220899999997  2.4767276499999999  6.6266459800000002
 -2.0694113199999999  6.0050676699999999  6.7461656799999998
  2.0155739399999999  5.9120973100000000  6.8009541000000002
  6.1456885000000003  5.9652019400000000  6.6645129799999996
 -4.1537583700000003  9.5710466099999998  6.7496929500000000
  0.0316673000000000  9.6801663999999992  6.6266692500000000
  4.0653304300000004  9.6140187099999999  6.7404154800000002
  2.1127024699999999  0.9642158100000000  3.3236330600000001
  6.1650267500000000  1.2564531800000001  3.5808392900000001
 10.1192783500000001  1.2397185900000001  3.3904295499999999
 -0.0323399900000000  4.9120774000000003  3.4843977499999998
  4.1461890300000004  4.7630034099999996  3.3538596100000002
  8.4198555699999993  4.9390052799999999  3.3023511499999998
 -2.0636429399999998  8.3643713700000006  3.3910290600000002
  1.9802400700000000  8.2604410999999995  3.4589058200000000
  6.0724782800000003  8.2180880900000002  3.2951332299999998
  1.9591648200000000  1.1729144600000001 10.1278512400000000
  6.1819448299999999  1.1919493999999999 10.0731279199999992
 10.1241390300000003  1.1650735900000000  9.9653673699999992
 -0.0272208900000000  4.8433003699999997 10.1330361000000000
  4.2049840400000003  4.6563859399999998 10.0363152400000004
  8.2348616400000001  4.8258411600000004 10.0774300500000003
 -2.1272406600000000  8.3520516400000009 10.1236973100000007
  2.0433542199999999  8.3281701100000003  9.9743507400000002
  6.2270780999999999  8.3237056400000000 10.1027527999999993
 -0.0251876500000000  2.3483178100000002  2.3044175099999999
  4.1291403400000002  2.4018964700000001  2.5374390800000000
  8.1381202300000002  2.1848519000000000  2.4931470600000001
 -2.0435220799999998  6.0331292500000000  2.5702380900000001
  2.1349831500000001  6.0391373499999998  2.4739899200000002
  6.2863385899999997  5.8835396900000001  2.4533622500000001
 -3.9675232399999998  9.5506328400000005  2.7086354799999999
  0.0544634100000000  9.6127688399999993  2.7499646499999999
  4.1387372200000003  9.5560782199999998  2.5577665999999999
  0.0392759400000000  2.1992003400000000  9.3578050200000007
  4.1807409199999999  2.3757156400000001  9.3855228499999992
  8.3316928699999995  2.4015667399999998  9.2392055699999993
 -2.0278389400000001  5.9563146600000003  9.1422064699999996
  1.8894151900000000  5.8863526200000003  9.2737549500000007
  6.1685798900000002  5.9530590500000002  9.3099538699999993
 -4.1424202299999999  9.5487056999999993  9.2927164199999996
 -0.0227385900000000  9.4909613700000008  9.2782898700000001
  4.1960539800000003  9.5893681999999991  9.2596015299999994
  2.0726687099999999  1.1141507799999999  5.9108787700000001
  6.1207011299999996  1.0856125900000000  5.9382711600000002
 10.2358076199999992  1.2686916200000000  5.9337283100000002
 -0.0961480500000000  4.7144808200000003  5.9090209299999996
  4.1098743100000004  4.6540640000000000  5.7882726299999998
  8.2906534700000005  4.7713142299999998  5.8893147199999998
 -2.0987195000000001  8.3802661199999999  5.8644664100000004
  2.1189855999999998  8.5392736899999999  6.0049129900000002
  6.2333829999999999  8.2602799400000002  6.0769297099999999
  2.0514029200000001  1.1996414600000000 12.6063567200000008
  6.2892585099999998  1.3921989400000001 12.5426563499999997
 10.3741150799999993  1.2226256099999999 12.6358667600000008
 -0.0594866200000000  4.7577315300000000 12.6423397899999994
  4.1407081000000003  4.7598042700000001 12.6391019300000007
  8.3427833099999997  4.9039600500000002 12.6782271200000007
 -1.9379303800000001  8.4372256900000000 12.4940864000000005
  1.9384530200000001  8.3670331299999994 12.5253542200000005
  6.3364205000000000  8.3373151799999992 12.5394595100000004
