Cd S 
 1.0000000000000000
    12.3977854500000007    0.0000000000000000    0.0000000000000000
    -6.1988927199999999   10.7367971499999992    0.0000000000000000
     0.0000000000000000    0.0000000000000000   13.4479464199999992
 Cd  S  
  36  36
Cartesian
  0.1596730600000000  2.2863266499999999 13.3740968900000006
  4.2618955200000004  2.4591859700000001 13.4010148400000002
  8.2736271000000006  2.3860340299999998 13.4468522999999998
 -2.0497832699999998  5.8857575899999999 13.4422370900000008
  2.1797323300000002  5.8080819100000003  0.1166406300000000
  6.2094623400000000  5.9624378599999996  0.0222250200000000
 -4.1325554899999997  9.5441918399999999 13.4457194399999995
  0.0097328200000000  9.5986609000000005 13.2489513700000003
  4.0975592199999999  9.6800764200000007  0.1733923100000000
 -0.0291385100000000  2.3702001500000001  6.7422805700000001
  4.1797453100000004  2.5496123499999999  6.8765377399999998
  8.4692429499999999  2.3755203400000000  6.5965242000000002
 -1.9999681600000001  6.0226097699999999  6.7762374400000001
  2.0843835700000000  5.9261993400000001  6.6713443999999997
  6.1904498400000003  5.9526023099999996  6.7479312599999997
 -4.1243252200000002  9.5395339999999997  6.7091952600000004
  0.0294766700000000  9.4986575099999992  6.5799434200000002
  4.0149938699999996  9.3979560200000005  6.6945785500000001
  2.0662876400000001  1.1957769600000001  3.3649518800000000
  6.2139859800000004  1.2419215699999999  3.3226480000000000
 10.1248006999999998  1.2734308500000000  3.3488951600000001
 -0.0226894300000000  4.7686352899999997  3.4225786100000000
  4.2616712400000001  4.8478976500000002  3.3608934200000000
  8.2642926200000009  4.7724384799999999  3.3643506200000002
 -2.1147574599999999  8.3467553999999993  3.3688286500000002
  2.0186953299999999  8.2204627499999994  3.3375783100000000
  6.1183226800000003  8.1851813100000008  3.3499107499999998
  1.9877356399999999  1.3843230600000000 10.1856503800000002
  6.1851164299999999  1.2145501400000001 10.0643364599999998
 10.3536705700000002  1.2045889700000001 10.0807877300000008
 -0.0922672300000000  4.8015039499999999 10.0912027700000007
  4.1358478600000002  4.7763311000000002 10.0681314700000009
  8.2517585800000006  4.7778133199999999 10.1234643900000005
 -1.9752327800000000  8.3384343800000007 10.0699328200000000
  2.2849254399999999  8.2950035000000000 10.1038478699999992
  6.1914445699999998  8.3939566100000000 10.0777443299999998
  0.0881305900000000  2.2720657200000001  2.3454387200000002
  4.1507406299999996  2.3687786000000002  2.4798900800000001
  8.2248834700000000  2.2944025500000000  2.6180051899999999
 -1.8837159900000000  5.9780613000000002  2.6129653099999999
  2.0500095900000002  5.9223396800000003  2.7664426799999999
  6.2219455999999997  5.9344286700000000  2.5512873800000002
 -4.0498702000000000  9.5628287699999994  2.6494486400000001
  0.0062509100000000  9.5277258899999993  2.4494261700000002
  4.1863030600000002  9.7433234599999992  2.4733865100000001
 -0.0752454400000000  2.2709617600000001  9.1536756799999992
  4.1222798400000000  2.4787649500000000  9.2571127200000003
  8.2943038799999993  2.3942695800000000  9.2809906200000007
 -2.0616390800000000  5.9886997400000004  9.2453686200000007
  2.1974453600000001  5.8676673700000004  9.4431370799999996
  6.2433320900000000  5.9653889800000002  9.2979938000000004
 -4.2278427000000001  9.4811555700000003  9.4274680699999998
 -0.1193780900000000  9.5525044799999996  9.3833172600000001
  4.1083567600000004  9.5601424200000000  9.2441733700000004
  1.8758732100000000  1.1292978300000001  5.8391146100000002
  6.2853351699999997  1.2810336800000000  5.8298512599999999
 10.2399746300000007  1.2710616699999999  5.9391901899999997
 -0.0047145700000000  4.7776229499999996  5.8855803599999996
  3.9272191599999999  4.7314227300000002  5.8755733399999999
  8.1994969599999994  4.8013453699999999  5.8323758400000001
 -2.1400980299999999  8.3996049199999998  5.9850023700000001
  2.0954353299999999  8.3545512800000008  5.8647329499999996
  6.1868942100000002  8.3782926999999994  5.8898890799999997
  2.0656519400000000  1.1977932200000001 12.6166180400000005
  6.3821268499999997  1.1270320400000000 12.5911339099999999
 10.3071813599999995  1.1012307699999999 12.5887552399999993
 -0.0864412600000000  4.8597573000000001 12.4879943499999992
  4.1448451100000003  4.7761841199999999 12.5338264299999995
  8.2402122799999997  4.7723319699999998 12.5696764999999999
 -2.0826238799999999  8.1701387299999997 12.7052900300000005
  2.1220978800000001  8.4532630300000005 12.7263951100000003
  6.2232054100000003  8.1637116899999995 12.6679926900000002
