Cd S 
 1.0000000000000000
    12.3977854500000007    0.0000000000000000    0.0000000000000000
    -6.1988927199999999   10.7367971499999992    0.0000000000000000
     0.0000000000000000    0.0000000000000000   13.4479464199999992
 Cd  S  
  36  36
Cartesian
 -0.0130234400000000  2.3584312299999999  0.0091833300000000
  4.2644887599999999  2.5350846100000002  0.0695998500000000
  8.3024573400000001  2.4788571799999999 13.3979996700000008
 -2.1661082800000000  5.7738948700000003 13.3603405800000008
  2.1808711299999999  5.9434073200000004 13.2660962999999992
  6.1905835500000004  5.8951953399999999  0.1021432000000000
 -4.0817051099999997  9.5638756100000002  0.0161941500000000
 -0.0525814200000000  9.6180725999999996 13.3625736100000001
  4.1617851400000001  9.4394097200000004  0.0063361300000000
 -0.0180596000000000  2.4910657800000000  6.9146037700000003
  4.1283001500000003  2.4635763599999998  6.9352041399999997
  8.2090064900000002  2.3742336399999999  6.7112671900000000
 -2.2147804999999998  5.9464255399999999  6.7681990699999997
  2.1197121800000001  5.8058192300000000  6.7828387699999997
  6.1576469100000004  6.1282084299999999  6.5673038300000002
 -4.2300891800000002  9.7198345699999997  6.7867868199999997
  0.0652399400000000  9.5604638800000004  6.8188261499999996
  4.1232166200000000  9.5195455199999994  6.7046115300000002
  2.0548910999999999  1.3365303600000000  3.4109014900000001
  6.0044396000000004  1.1425707599999999  3.4401974399999999
 10.3118368500000006  1.1834851500000001  3.3422247100000000
 -0.0734013300000000  4.8981249299999998  3.4479059400000001
  3.9686706599999999  4.7114484200000000  3.3719359299999998
  8.2361911800000005  4.7239691400000003  3.2188103500000000
 -2.1260835199999999  8.4246593399999998  3.5462345000000002
  2.0227282700000000  8.3727997500000004  3.3580298200000001
  6.1388847200000001  8.3549477900000007  3.1827842500000001
  2.1868752499999999  1.3179918799999999  9.9347095499999991
  6.1633024599999997  1.1524718100000000 10.1245622799999992
 10.3692644400000002  1.2474860200000000 10.2804851700000004
 -0.0816821300000000  4.7877767400000000 10.1325912400000000
  4.3158570100000002  4.6754795099999997 10.1942282899999999
  8.3954065199999999  4.8601252500000003 10.0096948999999995
 -2.1070843400000001  8.3793271899999997 10.0555962300000008
  2.0136132299999998  8.3041824900000005 10.1165201400000004
  6.4015193400000001  8.3513532200000000 10.0005515000000003
  0.0681162200000000  2.4129582699999998  2.5320689199999999
  4.1860712800000002  2.3483740700000002  2.5973174100000000
  8.2345260899999992  2.5013639799999998  2.4129795500000002
 -2.0725974900000002  5.9555518200000002  2.5252832199999999
  1.9440325199999999  5.9265462500000003  2.6413336100000002
  6.3456344700000002  6.0993542500000002  2.6018661800000000
 -4.1272442199999997  9.5756133999999999  2.5369194600000000
 -0.2252043400000000  9.5600333400000004  2.5475234300000000
  4.1880523900000002  9.7598772399999998  2.4972390000000000
  0.0000012400000000  2.3859551099999998  9.2573590800000005
  4.0641136500000004  2.4133104300000001  9.4812606699999993
  8.1901855399999999  2.3766563000000001  9.2094646200000003
 -2.2127873700000000  5.9052856699999996  9.2449085699999998
  2.0847183700000000  6.0087252700000002  9.3692264999999999
  6.2724297599999996  5.9141378400000004  9.2950742500000008
 -4.0175908299999996  9.7157003599999996  9.1638756800000003
  0.0461490300000000  9.4957670600000004  9.3639033999999999
  4.0469097400000003  9.4523675300000001  9.2305344599999994
  2.0630193299999999  1.2302040700000001  5.9037087300000000
  6.2927730300000002  1.2828304800000001  5.6983168900000001
 10.4272100200000004  1.1946099800000001  6.0152719499999998
  0.1608975300000000  4.7871918000000004  5.7998928599999999
  4.2139454699999996  4.8288681799999997  5.8141970399999998
  8.2586307399999992  4.7735921499999998  5.9001754100000001
 -2.1116258999999999  8.5198918300000006  5.8694853199999999
  2.0929416399999998  8.3467576500000007  5.9099230199999999
  6.4101267599999998  8.3347556300000001  5.9188317499999998
  2.0144289400000002  1.2184517900000000 12.7532318300000007
  6.1490474900000001  1.0399933400000001 12.6411821900000003
 10.1977047600000006  1.2635379600000001 12.7780890100000004
 -0.0076963600000000  4.7691297199999996 12.6153793499999995
  4.1944891300000000  4.8034990600000000 12.6561517800000001
  8.4281877499999993  4.6231501799999997 12.6332916100000006
 -1.9403932699999999  8.4800993299999998 12.7596261900000005
  2.0663207400000001  8.3509155800000006 12.6199316100000001
  6.1257430099999999  8.4169256299999997 12.6890590400000001
