Cd S 
 1.0000000000000000
    12.3977854500000007    0.0000000000000000    0.0000000000000000
    -6.1988927199999999   10.7367971499999992    0.0000000000000000
     0.0000000000000000    0.0000000000000000   13.4479464199999992
 Cd  S  
  36  36
Cartesian
  0.0735968500000000  2.4166415200000002  0.0336888500000000
  4.1748707500000002  2.3457085499999999 13.3757126599999996
  8.1078269899999995  2.3541202900000000  0.1449421000000000
 -2.1773226999999999  5.9400281200000000  0.1404308500000000
  1.9315713800000001  5.9858936800000002 13.3747762800000007
  6.2920544600000001  5.9472215600000000  0.0166547400000000
 -4.1624303100000004  9.5281070400000001 13.4221434399999993
 -0.0029493000000000  9.5261281400000009  0.0667518400000000
  4.0343022499999996  9.4383342100000007  0.0349446200000000
  0.0233416200000000  2.4203589200000000  6.6286809299999998
  4.0223706100000003  2.4656620899999999  6.7694551100000000
  8.1693653200000007  2.3174944000000002  6.7169287700000000
 -2.0848019299999998  5.9765062899999997  6.7370478399999998
  2.0252209699999999  5.9528032000000000  6.9196120499999996
  6.2324756600000004  6.1555379800000001  6.6700157500000001
 -4.1420241200000003  9.4999230600000004  6.7223222099999997
  0.1173152900000000  9.4940171699999993  6.7578675500000003
  3.9947493399999998  9.7100168399999998  6.6197046899999998
  2.2135161100000000  1.0547382900000000  3.3471018799999999
  6.1772283999999997  1.1650242000000000  3.3740972899999999
 10.4345153499999999  1.0713406999999999  3.5358735299999999
 -0.0959982200000000  4.7075168200000004  3.2892813599999999
  4.0437035500000000  4.9510110599999999  3.3773495400000000
  8.2290969199999999  4.6216232000000002  3.3362649900000001
 -2.0516864500000001  8.3636660700000007  3.3190212200000002
  2.0844175400000000  8.3585964700000002  3.3833252699999998
  6.1548365799999996  8.2957511000000004  3.3241290200000000
  2.1333746599999999  1.2561815400000000 10.0791994000000003
  6.1038536600000004  1.1218209400000001 10.1690946199999992
 10.1910206799999994  1.1196849600000001  9.9575713300000004
  0.0866762700000000  4.8862880400000002 10.1150793300000004
  4.1329746700000003  4.6416175800000001 10.0977227299999992
  8.2512766800000001  4.8036759000000000 10.0835077200000001
 -2.0944414500000001  8.4121661099999994 10.0340062299999992
  1.9568011199999999  8.4656411600000006 10.0665493200000000
  6.1871251200000001  8.3824522399999992 10.0924255899999995
  0.0041421000000000  2.3941932399999999  2.5357767800000000
  4.1756205700000004  2.2414050799999998  2.7221170400000001
  8.2155947400000002  2.4012657900000001  2.4728090599999999
 -2.1251389299999999  6.0326600600000004  2.3974447500000000
  1.8835434099999999  5.9472241400000003  2.3701045399999998
  6.2519852499999997  5.8712747199999997  2.5202489799999999
 -3.9332898599999999  9.6152992800000003  2.4628341800000002
  0.0034319600000000  9.5469596800000005  2.5338577600000001
  4.2389240399999997  9.7290811999999995  2.6028680500000001
  0.1521696100000000  2.3221636100000000  9.2666295600000002
  4.1708512000000004  2.3765372199999999  9.2687396799999995
  8.2358794999999994  2.3014268900000001  9.4107322399999997
 -2.0654195999999998  6.0111786199999999  9.2951394700000005
  1.9470361899999999  5.9273902700000001  9.3657756200000009
  6.3023692300000000  6.0311587299999996  9.3540361000000001
 -4.1334437299999998  9.5344126599999992  9.2557866099999995
  0.0560409100000000  9.5974444200000004  9.1014808400000007
  3.9765115199999999  9.6075488199999999  9.2104593700000006
  2.0841862000000000  0.9873241900000000  5.8716738299999998
  6.1990551399999996  1.2853921800000001  5.9004424899999997
 10.2901683100000003  1.1469187400000000  5.9518892200000000
  0.1113282100000000  4.9104772900000002  5.7850670400000004
  4.2713386699999996  4.6923313400000000  5.8724215400000004
  8.2233744699999995  4.9567403199999998  5.8813758600000003
 -2.0572901899999998  8.3561983000000009  5.9006903299999998
  2.0735487099999999  8.3317395600000008  5.7701130599999999
  6.2582367699999999  8.5200295900000000  5.8847769799999998
  2.1582472799999999  1.3084026400000000 12.6664212999999997
  6.2587589699999997  1.1990233400000001 12.6930702899999996
 10.3080947599999995  1.2638364499999999 12.6705387900000002
  0.1992606200000000  4.7244826800000004 12.5314527299999998
  4.1823798400000003  4.8385074699999997 12.6852090200000003
  8.2670149899999998  4.7749069700000000 12.6210164599999999
 -2.0548363599999999  8.2968473300000003 12.6807120300000005
  2.1001432599999998  8.3570252499999995 12.6100352699999991
  6.2160149400000000  8.2687310899999993 12.5998134900000007
