Cd S 
 1.0000000000000000
    12.3977854500000007    0.0000000000000000    0.0000000000000000
    -6.1988927199999999   10.7367971499999992    0.0000000000000000
     0.0000000000000000    0.0000000000000000   13.4479464199999992
 Cd  S  
  36  36
Cartesian
  0.1023778800000000  2.2957682699999999  0.1252513500000000
  4.0216420599999996  2.2298769799999998 13.4477954000000004
  8.2822516799999999  2.3513169199999999 13.4410110500000002
 -2.0912828100000000  5.9745422000000001  0.0180070700000000
  1.8717093600000001  6.0272285300000004  0.0508495100000000
  6.1598871900000001  5.9567679699999996  0.1148847300000000
 -4.1178388300000002  9.5250867800000005 13.4068743700000006
  0.0824900300000000  9.5855936800000006  0.0729953200000000
  4.0995615200000000  9.5067631499999994 13.4186350099999991
  0.1288680400000000  2.5004360000000001  6.8107398999999997
  4.1334062999999999  2.3909335500000002  6.7036119400000000
  8.2763583300000008  2.3760384999999999  6.7606662000000002
 -2.0757769000000001  5.9984113900000002  6.7146254100000000
  2.1743278899999998  6.1734467400000002  6.7741965799999999
  6.0867163900000003  5.9148821199999997  6.6622090800000002
 -4.1578330899999996  9.5238535500000001  6.7593125299999999
 -0.0646767600000000  9.5190302599999992  6.7007399999999997
  4.1270940899999999  9.5213060299999999  6.7347128700000001
  1.9924487200000001  1.1426355100000001  3.3392118399999999
  6.2475785799999999  1.2891264300000000  3.4279625000000000
 10.3587110800000008  1.1949873799999999  3.3208853800000000
 -0.0044783300000000  4.7702148900000001  3.3282166599999998
  4.0345404699999996  4.7258084599999997  3.3226336100000000
  8.3402956899999996  4.6707177399999997  3.4488611499999999
 -1.9461020700000000  8.3281706500000006  3.3559539900000002
  1.9042403400000001  8.5372601100000001  3.3818005400000000
  6.2186205200000000  8.4875638700000007  3.4763269600000002
  1.9994868200000000  1.2482654099999999 10.1711682900000007
  6.2668562699999999  1.1803448599999999 10.2567574799999992
 10.3607713399999994  1.1058809800000000  9.9903832399999999
  0.0332935100000000  4.6054722600000000  9.9847806899999991
  4.0144622500000002  4.7580012399999996 10.0657045200000006
  8.2645180099999997  4.7737749899999997 10.0894018200000009
 -2.0664780600000001  8.3465615999999994 10.0873682200000001
  2.0397781400000001  8.3041423400000003 10.0770162600000006
  6.2075920099999999  8.3574069400000006  9.9073246899999994
 -0.0469920700000000  2.3575283699999998  2.5399078600000000
  4.1307197000000002  2.3689607000000001  2.5262670699999998
  8.3131087800000003  2.3384684099999999  2.6185717500000001
 -2.0472275299999998  5.9861600599999996  2.4468390599999998
  1.9070279200000000  5.8114813900000000  2.4168134200000000
  6.3713755499999998  5.8897488800000000  2.4102095399999999
 -4.1966351800000004  9.3942971300000000  2.4279373000000000
  0.0687611000000000  9.4256568499999993  2.6229875200000001
  4.0069464100000003  9.5011073300000000  2.4225218100000001
 -0.0240293900000000  2.4179000899999998  9.2401278300000005
  4.2862511599999999  2.5089202199999998  9.1687938700000000
  8.3390880900000006  2.3874612700000002  9.2278220100000006
 -2.0696152600000000  5.9433106899999997  9.2523817299999997
  2.1881620900000001  5.8883510599999997  9.0570920000000008
  6.1992862999999998  5.9007724599999998  9.2221082499999998
 -4.0655830300000000  9.6233778599999997  9.2684778399999992
 -0.0970764500000000  9.4249451000000004  9.4135514699999998
  3.9940913899999999  9.5886869499999996  9.4245467800000000
  2.0855905500000000  1.3331754300000001  5.9699082600000004
  6.2282442299999996  1.2333395400000000  5.8709734700000000
 10.1582844500000000  1.0730977799999999  5.8663981999999999
 -0.0047274600000000  4.7634707799999996  5.8902352300000000
  4.1264260300000002  4.7713548100000001  5.8961355099999997
  8.3034740199999995  4.6971869499999999  5.9085123299999998
 -2.0486113700000002  8.4055856400000000  5.7778737400000004
  1.9374056600000000  8.1734729399999999  5.8483747299999997
  6.2063028200000003  8.3476453700000004  5.9006559100000002
  2.0832796700000000  1.2807894200000001 12.5832328400000009
  6.1366360699999998  1.2441771500000001 12.6530751499999994
 10.3348364099999994  1.2237010100000001 12.6282051899999992
  0.0016890800000000  4.7530800299999996 12.6767400400000003
  4.1177115700000000  4.7681849900000000 12.6312313899999999
  8.2621411699999996  4.8142901900000004 12.6410672099999992
 -2.0830201800000001  8.3156610999999998 12.6144553399999992
  2.0702354000000001  8.1378454599999994 12.6354305100000008
  6.1375789200000002  8.4889491400000008 12.5543106099999999
