Cd S 
 1.0000000000000000
    12.3977854500000007    0.0000000000000000    0.0000000000000000
    -6.1988927199999999   10.7367971499999992    0.0000000000000000
     0.0000000000000000    0.0000000000000000   13.4479464199999992
 Cd  S  
  36  36
Cartesian
 -0.0007488300000000  2.3861750000000002  0.0022269800000000
  4.1991175399999996  2.4506763100000000 13.4011217499999997
  8.2909425900000002  2.3225686099999998  0.1500162800000000
 -2.1108001500000002  5.9972067200000003 13.3849327099999993
  1.9976936700000001  6.0001604200000003 13.4063013600000005
  6.2456464499999997  5.9791326099999997 13.2576160200000004
 -4.1576287699999996  9.6324560399999992  0.0180109700000000
 -0.1238243000000000  9.6959358499999997  0.0511085200000000
  4.2178274699999996  9.4772882799999998 13.4215125999999998
 -0.0503301100000000  2.3085815699999999  6.9509663399999999
  4.0488150899999997  2.3065539199999998  6.6012155100000003
  8.3257163900000002  2.3998297399999999  6.7054816099999996
 -2.0265733699999999  5.9151332500000002  6.5702898100000002
  2.2555019000000001  5.8607407399999998  6.6839006200000002
  6.1302720400000004  6.0587816099999996  6.6452976100000001
 -4.0136309800000003  9.5984216799999995  6.8341032799999999
  0.0024529100000000  9.5399317999999997  6.7286951899999998
  4.0942276900000003  9.5181955800000004  6.6893795799999998
  1.9525685800000001  1.1634959199999999  3.3779600799999998
  6.0775277000000001  1.2085244399999999  3.4598977400000002
 10.3805355800000001  1.3910661000000000  3.4429597799999998
 -0.0140291500000000  4.7417498100000000  3.3855823699999998
  4.0425233399999998  4.7102732800000000  3.4669236200000002
  8.2439719700000005  4.8047651499999997  3.3468003799999999
 -2.1665269500000002  8.3468763999999993  3.2928644299999998
  2.1018533499999998  8.3155619999999999  3.2806554399999999
  6.3400191399999999  8.1490154799999992  3.3554675800000000
  2.0018683099999999  1.1347579200000000 10.1013292000000003
  6.2869536400000001  1.0428085199999999  9.9650483899999998
 10.3359704400000005  1.2778383000000000 10.2604852500000003
  0.0137875200000000  4.8197056199999997 10.1290317000000005
  4.1629800399999999  4.7515978199999997 10.0976294000000006
  8.1684913399999992  4.8031122200000000 10.1443860299999997
 -2.0911712300000000  8.2817873599999992 10.0762473000000004
  2.0666512099999998  8.3890261699999993 10.0301415600000006
  6.3371878600000002  8.5061183499999995  9.9909393200000007
 -0.0790668100000000  2.4938903099999998  2.6146009800000001
  4.1207709100000001  2.4435637200000002  2.6195948699999998
  8.1581902599999996  2.5647577899999998  2.6249322300000002
 -2.1031871600000001  5.8939936800000003  2.4261514100000001
  2.1148528600000001  5.9246966199999997  2.5307787199999998
  6.1408856600000004  5.9310966100000000  2.4067834100000001
 -4.2373389699999997  9.5458182499999999  2.4245823000000000
  0.0025489300000000  9.5430775699999995  2.5361275100000000
  4.1730432600000000  9.5829092700000000  2.5639106900000002
  0.0765141700000000  2.4428839700000000  9.2516318700000006
  4.0133397600000000  2.3728200400000001  9.3021743600000004
  8.1843740799999996  2.4682703799999999  9.2835375300000003
 -2.1066743500000000  5.8913761500000001  9.1675658000000002
  2.1736194800000002  6.1325994499999998  9.1977326399999999
  5.9623260599999997  5.9347731100000001  9.3307848700000005
 -4.0291705499999999  9.6485102400000002  9.3749375700000002
  0.0285287300000000  9.5859882600000006  9.3663651800000007
  4.2703723199999999  9.3596833099999994  9.3266724900000000
  1.9507627200000000  1.0616269100000000  5.9765423999999996
  6.3748076899999999  1.2049369500000000  5.9438044500000000
 10.3568678999999992  1.1012497699999999  5.9377585200000000
 -0.0398387900000000  4.6102778400000002  5.8007933400000002
  4.2617872900000000  4.6432938100000003  5.9416666300000003
  8.3216704400000001  4.8203512200000000  5.9909809200000002
 -2.2026636399999999  8.4846849100000004  5.9387605299999997
  2.0646513199999998  8.3426232299999992  5.8754800100000004
  6.1144609599999997  8.3848688800000009  5.8168148200000003
  2.0723488500000000  1.2130923000000000 12.6403057899999993
  6.1961523800000000  1.1979058499999999 12.6237695199999997
 10.3409390999999999  1.1898626999999999 12.6215972799999996
  0.0157409100000000  4.6891528200000003 12.7260291900000002
  4.1309633799999999  4.7869540900000001 12.6237328099999999
  8.2725532600000005  4.8967892700000002 12.4258968400000001
 -2.0083992099999999  8.3287491399999993 12.5546704800000004
  2.0288267400000000  8.3921828900000008 12.6361653000000000
  6.2493987000000004  8.3606470900000005 12.5694817800000003
