Cd S 
 1.0000000000000000
    12.3977854500000007    0.0000000000000000    0.0000000000000000
    -6.1988927199999999   10.7367971499999992    0.0000000000000000
     0.0000000000000000    0.0000000000000000   13.4479464199999992
 Cd  S  
  36  36
Cartesian
  0.0847265300000000  2.5594925700000002  0.1602659000000000
  4.0058011599999999  2.4427311899999999  0.1295010300000000
  8.3875928700000006  2.5126715399999999 13.4441797800000007
 -1.8783512800000000  5.9168169900000001 13.4434026299999996
  2.1208745900000001  6.1468581300000000 13.4283909500000007
  6.2334468400000000  5.9901594100000004 13.4388667700000006
 -4.1488131399999997  9.5284168000000005 13.4381715100000001
 -0.0686490100000000  9.7684353200000000  0.0814516600000000
  4.1316905700000000  9.5730719999999998  0.0183778300000000
  0.0623809500000000  2.4676211200000000  6.6956744300000004
  4.1118283900000003  2.4121987400000000  6.7337794500000001
  8.2847405999999992  2.3745297700000001  6.7610079100000000
 -2.1659684299999999  6.1275295400000003  6.6624649900000001
  2.0174962200000000  5.9481233500000004  6.6350404599999999
  6.1977844299999996  5.9465539500000002  6.7272184700000004
 -4.1303371000000002  9.5629738199999998  6.7267720000000004
  0.0091398400000000  9.5383789399999994  6.7517027399999998
  4.1256040599999997  9.4847271600000003  6.7360419399999998
  2.0692125200000002  1.1942622100000000  3.3634127600000001
  6.2055670100000002  1.0448167300000000  3.4592825000000000
 10.3415107600000002  1.1926403100000000  3.3338033399999998
 -0.0013062300000000  4.7820133399999998  3.3902568799999999
  4.0458545600000004  4.6923983399999996  3.3108234900000002
  8.1334301500000006  4.8134092400000004  3.4039065399999999
 -2.0459353700000000  8.3792133799999995  3.3793415800000002
  2.0752699600000000  8.3589020400000003  3.3716044400000000
  6.2593190400000003  8.2899068499999995  3.2810383100000000
  2.0254088499999998  1.2570315700000001 10.0833932700000002
  6.1922196800000000  1.1989099599999999 10.0805312800000006
 10.2167211000000009  1.2384376900000000  9.9414341999999998
 -0.0828034400000000  4.8913611699999997 10.1250294600000004
  4.1312538600000002  4.6555571699999998 10.2556758600000002
  8.3834574699999997  4.6446792900000000  9.9479216200000007
 -2.0573245899999999  8.3666126700000003 10.1118549099999999
  1.8506784400000000  8.2481744199999998 10.0623444099999997
  6.2087125800000003  8.3435804200000003 10.0821782500000001
 -0.0975427400000000  2.4829956800000001  2.6497326600000002
  4.0161798400000004  2.5588329000000001  2.4884639499999999
  8.2622200200000009  2.3776395699999999  2.5300400199999999
 -2.0606686500000002  5.9721394200000004  2.5079174800000001
  2.0587654099999999  5.9647047200000003  2.4326462300000000
  6.2111724900000000  5.9727819100000001  2.5841476999999999
 -4.1406407099999996  9.5231769199999992  2.5515848399999999
  0.0794039800000000  9.4468718999999997  2.4476427100000002
  4.3211904099999998  9.5675070099999999  2.4029063700000002
 -0.1408074800000000  2.4298145000000000  9.2695891800000005
  4.1849221900000000  2.4390687600000001  9.1535702499999996
  8.0812695699999999  2.2981936100000002  9.1909383299999998
 -2.1706598200000000  5.8949712600000002  9.2445130700000000
  1.9352300899999999  5.9961005099999998  9.2667397000000005
  6.2170366399999999  5.9305384099999996  9.0716056900000002
 -4.0292927900000004  9.6360033699999992  9.1918250900000000
 -0.2284961400000000  9.5727651399999996  9.2279731700000003
  4.0453242500000002  9.5496565499999999  9.2884933600000004
  2.0527511800000000  1.3735356999999999  5.9359899800000004
  6.2260260799999996  1.1752610900000000  5.8552081700000000
 10.2042838299999996  1.2204543100000000  6.0446756099999996
 -0.0859868800000000  4.8391903300000001  5.9082475399999996
  4.2026804100000001  4.8087580599999997  5.7002447900000002
  8.3717428599999995  4.9160392699999997  5.8835815900000004
 -2.1713388999999998  8.2624353599999996  5.9361108800000002
  2.1461561599999999  8.3047739800000002  5.7389298300000000
  6.1911342600000001  8.4047698600000000  5.8590366600000001
  2.1217080300000002  1.0539049000000000 12.7498055600000004
  6.1933175699999996  1.1851012599999999 12.6100055500000003
 10.4605774799999995  1.1979700600000001 12.6649950100000002
  0.0044390300000000  4.8625180600000002 12.6093256199999999
  4.0463388199999999  4.6050521299999998 12.4747456999999997
  8.2439349600000007  4.6388563999999999 12.4586547000000003
 -2.2978926500000001  8.4259234900000006 12.5731238899999997
  2.0613156300000002  8.3432312599999996 12.7553504199999992
  5.9817445200000003  8.3004042099999999 12.6349072499999995
