Cd S 
 1.0000000000000000
    12.3977854500000007    0.0000000000000000    0.0000000000000000
    -6.1988927199999999   10.7367971499999992    0.0000000000000000
     0.0000000000000000    0.0000000000000000   13.4479464199999992
 Cd  S  
  36  36
Cartesian
 -0.0300580000000000  2.4078821200000000 13.3231954699999999
  4.1512806800000002  2.4025269300000001 13.4096375200000004
  8.3869639899999999  2.5456273899999999 13.3962023499999994
 -1.9978425000000000  5.9998635399999998  0.1635730200000000
  2.1074353299999999  5.9566545900000003  0.1001972900000000
  6.1512152499999999  5.9676800999999999  0.0305097600000000
 -4.1416844800000003  9.5694651900000007 13.4275531499999996
  0.0011408500000000  9.5560326999999994 13.4032069800000002
  4.2695102399999998  9.4166436299999994 13.4456361999999991
 -0.0229514000000000  2.4075268400000001  6.7368989700000004
  4.0838887399999999  2.5073594099999998  6.8714123300000001
  8.4799037500000001  2.3472951300000000  6.7030829000000001
 -2.0337277000000000  5.9994397599999996  6.8054436899999997
  2.1286594700000001  6.0536117400000000  6.8131106399999997
  6.2849067700000001  5.9488752500000004  6.6989418699999996
 -4.1636474699999999  9.4748238600000008  6.7667111899999997
 -0.0258538400000000  9.5729931900000000  6.6126472100000004
  4.1356538299999999  9.5479396199999993  6.7063058399999997
  2.1222689099999998  1.1675236200000001  3.3866600899999999
  6.1375615600000000  1.3545604499999999  3.3741442199999998
 10.3117778999999992  1.2644877400000001  3.2802416499999998
  0.0025961600000000  4.7641826299999996  3.3713777100000000
  4.0961202099999996  4.8119312100000000  3.4153005900000002
  8.1203592300000000  4.7958151700000000  3.4281642200000002
 -2.0965386600000002  8.1847972500000008  3.3998099000000002
  1.8899742100000001  8.2593997399999992  3.3051036699999998
  6.1910107700000001  8.3516579300000000  3.3292045500000000
  1.8930514599999999  1.1067821200000001 10.0644432399999992
  6.2824064399999999  1.1065708200000000 10.0702380900000001
 10.3103558700000004  1.1868493099999999 10.0441333400000001
 -0.0509814900000000  4.8393818700000004 10.1146418600000008
  4.2416023300000001  4.7900016200000000 10.0624460800000008
  8.2284393999999992  4.9143884900000003 10.2753290899999996
 -1.9812237600000000  8.3715537500000003 10.3017935699999992
  1.9376184000000001  8.2502174200000002 10.0905692299999998
  6.2362837100000004  8.3336133399999994  9.8761074400000002
  0.0194573300000000  2.3242410800000002  2.5958038399999999
  3.9408988200000001  2.3730192099999998  2.4227388599999999
  8.2882401199999993  2.2919521999999999  2.5688482399999999
 -2.1462389100000001  6.0055516799999999  2.3248148099999999
  2.2282476000000000  5.8373785500000004  2.5075000599999999
  6.2404992600000000  5.7905570900000001  2.3846934100000001
 -4.3312294500000004  9.4983292899999991  2.6064802999999999
 -0.0763867200000000  9.3159746699999992  2.5144578900000001
  4.2626354199999996  9.6446425199999997  2.4143325500000001
  0.0686350100000000  2.3970140099999999  9.3136133200000000
  3.9806869699999998  2.3250406500000000  9.2168741700000005
  8.1940289800000006  2.3385198400000000  9.2696296599999997
 -2.0631999599999999  5.9599616299999996  9.2639539600000003
  2.0259718400000000  5.8376507200000001  9.1170939099999995
  6.1959966099999999  5.9740325299999997  9.2213035199999993
 -4.1153916300000004  9.4797440000000002  9.2161352099999991
  0.0978089200000000  9.6796133399999995  9.2649492400000000
  4.2113195000000001  9.5508905300000002  9.3050939100000001
  2.1114145199999999  1.2985033100000001  5.9423613499999997
  6.2688578899999996  1.2439112000000001  5.8400497800000002
 10.4783924800000001  1.1628766200000000  5.8945752799999998
 -0.0193641000000000  4.7531781700000000  5.7416549200000002
  4.1489109099999997  4.7197419500000004  5.9426370300000002
  8.2980967900000007  4.7381397800000000  6.1153402699999999
 -1.9369441999999999  8.2324761500000001  5.9389660099999997
  2.0636793299999998  8.3512775200000000  5.8939252099999999
  6.2742116299999999  8.3314073600000000  5.9227401200000003
  2.1159779599999999  1.3058379400000000 12.6494128799999999
  6.2065771800000000  1.1971192799999999 12.6220910899999996
 10.3581023499999993  1.1656654000000000 12.6070482100000003
 -0.1100997100000000  4.7795781200000000 12.8253056900000004
  4.0829996900000003  4.6484940699999999 12.5503298900000004
  8.2012950700000005  4.6255695100000001 12.6897988099999992
 -2.0540217599999999  8.3308304700000004 12.6298361600000000
  1.9537747599999999  8.4836861700000004 12.7092251699999998
  6.1477737499999998  8.2505140800000003 12.4919054200000001
