Cd S 
 1.0000000000000000
    12.3977854500000007    0.0000000000000000    0.0000000000000000
    -6.1988927199999999   10.7367971499999992    0.0000000000000000
     0.0000000000000000    0.0000000000000000   13.4479464199999992
 Cd  S  
  36  36
Cartesian
  0.0154553300000000  2.6019756100000002  0.0720835500000000
  4.1712758299999999  2.3105065699999998  0.0544454900000000
  8.2042120799999996  2.4543059899999999 13.3810048300000002
 -2.0475325700000000  6.0456963500000001  0.0529627200000000
  1.9490174199999999  6.1368693700000003  0.0137973200000000
  6.1454209600000000  5.9334401300000001 13.4002411699999993
 -4.1485716999999998  9.5173281599999999 13.3957392100000003
  0.0471741400000000  9.5487118199999994  0.0441704500000000
  4.1010668600000004  9.5318951999999992 13.4128909899999993
  0.0696334600000000  2.3231174700000001  6.6615989400000002
  4.0369060899999996  2.2625065300000000  6.7460088799999998
  8.2663360800000003  2.4149928900000002  6.7718959099999996
 -2.2567354700000002  5.8832590299999996  6.7389477700000002
  2.0606507399999998  5.9793626000000000  6.7365755500000004
  6.0966034400000000  5.8213844799999999  6.6749531600000003
 -4.3393475199999996  9.5955786900000000  6.6817186900000003
  0.0656522900000000  9.5270101700000005  6.7397514200000002
  4.1866083600000001  9.6882751500000008  6.7179213700000000
  1.9615760000000000  1.2464796600000001  3.4398210300000001
  6.1687204800000002  1.1775294500000000  3.4841200500000000
 10.3509087799999993  1.1693996600000001  3.3567796900000002
 -0.1166033400000000  4.7491631400000003  3.4261775499999998
  4.1254267699999998  4.7704529200000003  3.3574648699999998
  8.2242017199999999  4.7873159200000002  3.3718259300000000
 -1.9558539200000000  8.3881884800000002  3.4850151399999998
  2.1094282099999999  8.1927509700000005  3.1819262699999999
  6.0958300599999999  8.4053967800000002  3.2845858699999999
  2.0709045100000001  1.1797128900000000 10.0767155600000002
  6.1968364899999999  1.1923656700000000 10.0833987900000004
 10.3118402600000003  1.3161003800000000 10.2609555199999996
 -0.0792768900000000  4.5899739100000003  9.9671770599999991
  4.1902211300000003  4.9002787300000001 10.1196458400000004
  8.2709769499999997  4.7745341899999998 10.0530935699999997
 -1.9437680100000001  8.2370877100000008 10.2528153399999997
  2.1227137400000000  8.3567013200000009 10.0427485999999995
  6.0619969999999999  8.4083506799999999 10.0404709299999997
 -0.0371233700000000  2.2339773599999999  2.7144141899999998
  4.1412083500000003  2.2791690800000000  2.4351454000000001
  8.2816183999999993  2.3077785600000000  2.5770518899999999
 -2.1686534800000001  5.9980181000000004  2.6629970500000000
  2.1256849999999998  5.9492320300000001  2.4631238500000001
  6.2448627900000000  5.9227382300000002  2.5695757800000001
 -4.1373606299999999  9.7663106200000005  2.4727549999999998
 -0.0133972300000000  9.5391481200000001  2.5527724300000001
  4.3100263300000003  9.6295077199999994  2.5314632200000000
 -0.1591772100000000  2.3888335399999998  9.3212340000000005
  4.1231892800000001  2.3791617299999999  9.2224375900000002
  8.2778752600000001  2.3824184100000001  9.2554770400000006
 -2.0188819699999998  6.0344661999999998  9.0789954700000006
  2.0633813499999998  5.9900057699999998  9.2375826700000001
  6.2248873500000004  6.0522334500000001  9.2667040600000004
 -4.0372951300000004  9.6511739300000006  9.2740100600000002
 -0.1120949400000000  9.5641256699999992  9.0899532599999997
  4.2612197800000002  9.3875369200000005  9.2998453100000003
  2.0979533799999999  1.1270920600000001  5.9562606100000002
  6.1282785300000002  1.1081396800000001  6.0498523999999998
 10.3298637200000005  1.0707685400000000  5.9168609500000002
  0.0032662000000000  4.7436277799999997  5.8594526100000000
  4.3095909199999998  4.7919411199999997  5.7378285800000004
  8.2560275099999991  4.7751789400000000  5.9078356300000001
 -1.9061916200000000  8.2740911199999996  5.9091469400000003
  2.0729286400000002  8.3290977700000006  5.8751756799999999
  6.1418766199999997  8.4266009799999999  5.7067565599999996
  1.9413772199999999  1.1773712999999999 12.5456319799999996
  6.1986318799999998  1.1916805500000001 12.6182351599999993
 10.3897783799999992  1.2430035200000000 12.5868995600000009
  0.0605566100000000  4.8954209700000000 12.7535891400000008
  4.2906658200000001  4.7254906500000002 12.5201360200000007
  8.1275637100000004  4.7925468899999997 12.5203537399999991
 -1.8877470000000001  8.4081695500000002 12.4744057399999999
  2.1395912799999999  8.3455757500000001 12.6456224400000004
  6.2510975100000001  8.3637656000000007 12.5982239400000005
