Cd S 
 1.0000000000000000
    12.3977854500000007    0.0000000000000000    0.0000000000000000
    -6.1988927199999999   10.7367971499999992    0.0000000000000000
     0.0000000000000000    0.0000000000000000   13.4479464199999992
 Cd  S  
  36  36
Cartesian
 -0.1394507200000000  2.4029741200000001 13.3075446100000008
  4.1254036500000000  2.3684305100000000 13.4438387400000003
  8.2879306100000001  2.4616974200000001 13.4247278699999999
 -2.0647971100000002  6.0513069699999997  0.1187356800000000
  2.1413375100000001  5.8936105899999998 13.3991362899999995
  6.1947642700000003  5.9675612500000002  0.0041262300000000
 -4.1223030200000004  9.5432293900000005 13.4274139600000009
 -0.0547732900000000  9.4642932099999992  0.0227385900000000
  4.1084137299999997  9.5479483199999997 13.4029029299999998
  0.0564554200000000  2.3675795100000001  6.7248635999999999
  4.0659079800000004  2.2346997300000000  6.7740575300000003
  8.3464151199999996  2.4769205900000002  6.7269745199999997
 -2.2438394800000001  6.0391728899999997  6.7945797700000004
  2.0667360700000001  5.9382745899999998  6.7331744300000000
  6.0970836000000004  6.0813897600000004  6.7843227500000003
 -4.2071987200000001  9.6113902299999996  6.6188356900000000
 -0.1296654000000000  9.6537791100000003  6.8531992300000004
  4.2563699499999998  9.6033584600000008  6.8194524200000002
  2.0960540399999998  1.1092124999999999  3.4049685300000001
  6.3172630600000002  1.2192981700000001  3.3148178000000001
 10.4671034899999995  1.1485454700000000  3.2714219500000001
  0.1675928300000000  4.9204406100000000  3.2714906699999999
  4.1399384399999999  4.8236373199999996  3.3134826899999998
  8.2657543800000006  4.7689993700000004  3.3664084200000000
 -1.9722376600000000  8.4367717399999993  3.2737851600000001
  2.1792757900000002  8.2637116400000004  3.3963704500000000
  6.1482384799999998  8.4177728700000003  3.4305200299999998
  1.9573787300000001  1.2200933400000000  9.9885622600000001
  6.2039055799999998  1.1965957500000000 10.0919542399999997
 10.3303803999999992  1.1945274100000001 10.0860714300000005
  0.0128858900000000  4.6834467499999999 10.1203012999999995
  3.9601634300000002  4.8684283400000004 10.0188821299999997
  8.3207078100000000  4.8287183000000002 10.1497876700000003
 -2.0176302300000000  8.4413609699999999  9.8651774799999998
  1.9645473200000001  8.4305130399999992 10.2315886999999996
  6.4207590999999997  8.3825814100000002 10.0132295599999992
  0.0202284800000000  2.3789064099999999  2.5349280799999998
  4.1934516200000003  2.3966650700000001  2.2949514999999998
  8.1913543400000002  2.4360590200000001  2.5333714800000000
 -2.1054584400000000  6.0154579899999998  2.4847512400000000
  2.0883490000000000  5.8700377399999999  2.4380174700000001
  6.2558114600000003  5.9304943899999998  2.5032315399999998
 -4.2942301199999999  9.4708628400000006  2.3632056100000001
 -0.0120704200000000  9.5569166600000006  2.5429805800000000
  4.1889822299999997  9.6022737199999995  2.5109440699999999
 -0.0059189500000000  2.3431543700000002  9.3163604699999993
  4.1172242700000004  2.2904864100000002  9.2301665300000000
  8.2304933400000007  2.4490010500000001  9.2878397899999996
 -2.0080417200000000  5.9737425300000000  9.2669239300000008
  2.0292351200000001  6.0347084200000003  9.2539925200000006
  6.2638762799999999  5.9685158500000002  9.1409302599999993
 -4.0855621800000002  9.6632800999999997  9.2780865400000003
  0.0010062700000000  9.5455217000000001  9.2558531800000008
  4.1272421799999996  9.4353376799999999  9.2770068000000006
  2.0679646900000002  1.1976906899999999  5.8057634299999998
  6.2209500000000002  1.1552039999999999  5.9645644500000001
 10.3112241499999993  1.0961322899999999  5.8348231000000004
  0.0654745700000000  4.8725022100000004  5.9804433799999996
  4.3180399500000002  4.8564116100000003  5.9772703399999996
  8.3714603200000006  4.7644051999999997  5.8071462800000004
 -2.0696897100000000  8.2032661600000001  5.7014705699999997
  1.9994362999999999  8.4142422900000007  5.7739973600000001
  6.2743075900000003  8.4476568099999998  5.8442866899999997
  2.1351328500000002  1.2178596500000001 12.6313487900000005
  6.2334734300000001  1.2592018000000000 12.4116917800000000
 10.3566602400000001  1.1797258799999999 12.5536551599999999
 -0.1584701700000000  4.8568317399999996 12.4558136800000003
  4.1319787600000000  4.8246391700000002 12.6560342400000003
  8.2263793900000000  4.7993718400000001 12.6706833600000000
 -2.1680683100000002  8.4816063499999998 12.7087413100000006
  1.9424251500000000  8.3599768999999995 12.4797975599999997
  6.3511540899999996  8.3692587599999992 12.5284780500000004
