Cd S 
 1.0000000000000000
    12.3977854500000007    0.0000000000000000    0.0000000000000000
    -6.1988927199999999   10.7367971499999992    0.0000000000000000
     0.0000000000000000    0.0000000000000000   13.4479464199999992
 Cd  S  
  36  36
Cartesian
 -0.0624917200000000  2.3905093399999999  0.2241751200000000
  4.1414393799999996  2.3887074899999998 13.4304687999999999
  8.3407898100000004  2.3229891700000000  0.1511424100000000
 -1.9105698400000000  6.0673508600000003 13.3991371000000008
  1.9326637499999999  5.9923159999999998  0.1209601100000000
  6.1653636599999997  5.8970329399999999  0.0034857100000000
 -4.1134428800000000  9.6468780299999999  0.0485563700000000
 -0.0798665900000000  9.6720973699999995  0.1181263600000000
  4.1448177800000003  9.4656826600000006  0.1279441700000000
  0.0436791300000000  2.3868741800000000  6.7372342300000003
  3.9954326400000002  2.3189837999999998  6.8352850900000002
  8.2702857699999992  2.3670206600000001  6.7158544200000003
 -2.0504363799999998  5.9806951399999999  6.7287788300000004
  2.0891191500000001  5.9813222799999997  6.7372030299999999
  6.1145380700000000  5.8802669999999999  6.7286553800000002
 -4.2801503900000002  9.3834542499999998  6.7221843600000000
  0.0231445600000000  9.6806158399999997  6.7264413100000002
  4.0629000900000003  9.5188120900000008  6.8481846300000004
  2.0707616899999999  1.0492889299999999  3.4105991800000002
  6.1753566500000003  1.1663634000000001  3.3156476700000002
 10.3328286499999997  1.2193095500000000  3.3754111500000001
  0.0276514700000000  4.8382766200000002  3.3406869399999999
  3.9776377900000002  4.8613797400000003  3.4778558600000000
  8.3386418300000003  4.6248052599999996  3.4435916999999998
 -1.9665629499999999  8.2952360600000006  3.3263452400000002
  2.0319972300000000  8.3190034599999994  3.3350104300000001
  6.2415965299999998  8.2515427700000004  3.3381264499999999
  2.2375797199999998  1.1764532000000001 10.1021085100000008
  6.1782158799999998  1.1913053000000000 10.0857560799999995
 10.3358344399999993  1.1762838799999999 10.0989318400000005
 -0.0383526700000000  4.8095424900000001 10.0947114700000000
  4.0898355799999999  4.7364728899999999 10.1725164499999998
  8.2835735300000000  4.6573795200000001 10.1948635700000008
 -1.9920108900000000  8.3824428999999991 10.0482863299999998
  2.1830537600000000  8.3817923600000004 10.1236404199999992
  6.1665092799999996  8.3554570300000002 10.2898862199999996
  0.0370820900000000  2.4035264199999999  2.4838733600000000
  4.1613491099999997  2.3306854100000001  2.4457952299999999
  8.1596321900000000  2.5216902399999999  2.5972984499999998
 -2.1748301799999998  6.0131436699999998  2.5194403500000000
  2.1115371399999998  5.9994991400000002  2.5820488799999999
  6.1634472699999998  6.0544198900000001  2.6107383300000002
 -3.9659971999999999  9.4115483700000002  2.5288248699999998
  0.1125025900000000  9.5296498100000004  2.6612685800000002
  4.1368344099999996  9.5331274599999993  2.5307113499999998
  0.0123534000000000  2.2991650699999999  9.3161504100000005
  4.0571746700000002  2.5150912999999999  9.0668055800000005
  8.2367460399999999  2.3649340699999999  9.2750052099999998
 -2.0109174500000000  6.0938702200000003  9.0961993000000003
  2.1581362600000000  6.0485638300000000  9.1256421000000003
  6.1505804800000003  5.8634915100000002  9.1094432399999992
 -3.9403863499999998  9.6823441399999997  9.2297279900000007
  0.0166606400000000  9.4634228900000004  9.2531118200000009
  4.2869327899999998  9.4802569000000005  9.3282336600000004
  2.1186978500000002  1.1542228699999999  5.8600202499999998
  6.1975370300000003  1.1967201900000000  5.8979612100000001
 10.3098513399999998  1.1828317100000001  5.9278410700000004
 -0.0131887000000000  4.7573828000000002  5.8829858399999999
  4.0877670100000003  4.5855740799999998  5.8753678499999999
  8.2188415300000006  4.8562914700000004  5.8158255900000002
 -2.2075032399999999  8.4514772899999997  5.9822694800000003
  2.1710396300000001  8.5755560099999997  5.8968972099999997
  6.2911914500000004  8.4415715200000001  5.8119797399999999
  2.1083015000000001  1.2065496200000001 12.4239234900000000
  6.2014572100000001  1.1811127500000000 12.5958315499999998
 10.3426996500000001  1.1770849500000000 12.5239868399999992
 -0.0667627500000000  4.6943966699999997 12.5619056100000002
  4.2439945400000001  4.7508270200000000 12.8106495799999998
  8.4766524299999997  4.7486291999999999 12.6040416600000000
 -2.0699454700000000  8.3488534699999999 12.6124850800000008
  2.0696918200000001  8.3477787200000009 12.6208185099999994
  6.2142163300000002  8.4970869800000006 12.4822261200000000
