Cd S 
 1.0000000000000000
    12.3977854500000007    0.0000000000000000    0.0000000000000000
    -6.1988927199999999   10.7367971499999992    0.0000000000000000
     0.0000000000000000    0.0000000000000000   13.4479464199999992
 Cd  S  
  36  36
Cartesian
  0.0339259200000000  2.3813601900000001 13.3981532500000000
  4.0280752700000004  2.5714817100000000 13.4228864399999992
  8.3349415899999997  2.3086144200000001  0.0073012900000000
 -2.0660259200000000  5.9665774300000001 13.4416660900000000
  2.0498015000000001  5.9923108500000000 13.4391520000000000
  6.2405377599999996  5.8759684200000004  0.1586334600000000
 -4.0780288599999999  9.3533975599999994  0.0682967400000000
 -0.0651790000000000  9.4200670500000001 13.2883377199999995
  3.9692497000000002  9.5854259699999993  0.0354805200000000
  0.1116238300000000  2.4471061100000000  6.7108445200000002
  4.1307283100000003  2.3852912599999998  6.7204542900000002
  8.3075304499999998  2.3884590399999999  6.7604172800000004
 -2.0625975599999999  5.9891712999999998  6.7050071700000000
  2.0698608699999999  5.9390058699999999  6.7211218400000003
  6.3275694700000003  6.0680252399999999  6.6982907300000001
 -4.2209963999999998  9.6741894300000002  6.7092295499999999
  0.0146006300000000  9.4642981499999994  6.6647695699999998
  3.9935797399999999  9.5462336499999996  6.8286071100000001
  2.1380660400000000  1.0935026299999999  3.5801748299999998
  6.1986578500000000  1.1943496100000000  3.3679893600000002
 10.3612348900000004  1.2093218600000000  3.4813199199999998
  0.0852264100000000  4.8139693699999997  3.3975948800000002
  4.1899433600000000  4.8061721000000004  3.3229895800000002
  8.2888204000000005  4.8665660400000004  3.3803832599999999
 -1.9950104099999999  8.5559304300000001  3.4179428399999998
  2.1515395900000001  8.3888505099999993  3.3754787999999998
  6.1277360099999996  8.3758920600000000  3.5932498599999998
  2.0736058599999998  1.1113701700000000 10.0089457100000008
  6.0298101800000001  1.3459454600000000 10.0212106399999996
 10.4246315900000006  1.0967493300000000  9.9088642100000008
  0.0405028900000000  4.6935392299999998 10.0262919499999992
  4.1408237699999999  4.6864979299999998 10.1499689499999999
  8.1476319400000001  4.8815516099999998 10.2390757099999998
 -2.2173948800000001  8.3319147800000000 10.0038533800000007
  2.1138971199999999  8.3140250200000008 10.0249892500000009
  6.1943085900000003  8.3650486399999995 10.1125102299999998
 -0.0212056100000000  2.3578789300000000  2.5421917199999999
  4.1491698299999999  2.4255558599999998  2.5470827400000000
  8.2175303399999997  2.4830403500000000  2.5874085600000001
 -2.1052664600000002  5.8887568000000003  2.4419805800000001
  2.0263582800000002  5.9846179399999997  2.5668925100000002
  6.1985801800000004  5.9649496299999996  2.5337187100000000
 -4.1452301800000004  9.6252120300000001  2.5412172800000001
 -0.0764250300000000  9.6733414399999997  2.5781005600000002
  4.2444118599999996  9.7023511899999999  2.5928703099999999
  0.0008246400000000  2.3115685400000001  9.2805270699999998
  4.3531354100000001  2.3139851800000000  9.1996785499999998
  8.1971705099999994  2.4803770799999998  9.1935992800000008
 -2.0730140499999998  5.9925892599999999  9.2666742099999997
  2.0768618999999999  5.9567679699999996  9.2905854600000009
  6.2202342799999997  5.8000388599999999  9.2448760300000004
 -4.1122883999999997  9.5682795200000008  9.2665449700000000
  0.0696250400000000  9.4933949799999997  9.3853206000000000
  4.1675990199999999  9.7765173399999998  9.2560254499999992
  2.0335130399999999  1.2059439599999999  5.9413036699999999
  6.2294033000000004  1.1678405700000001  5.9046795300000001
 10.4021867599999993  1.2554054800000001  5.8284873700000004
  0.0139643700000000  4.7398658300000003  5.8901105700000000
  4.0326396400000002  4.7866066500000004  5.8732582700000000
  8.2642118500000006  4.7686334600000002  5.8843385699999997
 -2.0967825300000000  8.3448794599999996  5.9317240299999998
  1.9830297500000000  8.2294455800000001  5.7432078899999999
  6.2618341800000001  8.3411213699999998  5.8010622999999999
  2.0251471400000001  1.0356231400000000 12.8056357900000002
  6.0817712200000003  1.1075725599999999 12.4493882500000002
 10.3270094399999994  1.1607550300000000 12.6086911500000003
  0.0339411100000000  4.7620535200000003 12.6230079699999997
  4.1951394000000004  4.6763322199999999 12.5351007600000006
  8.2496685599999999  4.7445749800000003 12.7106690800000006
 -2.2361057400000002  8.4046567999999997 12.6524800800000001
  2.0144713400000001  8.2421715800000008 12.4072593300000005
  6.0175747399999997  8.2831074499999993 12.6174025899999993
