# DFTB+ input for band gap calculation
# Auto-generated by dftbp.py

Geometry = {
  Periodic = Yes
  TypeNames = { "Cs" "I" "Pb" }
  TypesAndCoordinates [Angstrom] = {
    1      8.7862900788      8.6218788148      3.1894397500
    1      0.0670909212      0.3086571852      9.5683192500
    1      4.3595995788      4.7739251852      9.5683192500
    1      4.4937814212      4.1566108148      3.1894397500
    3      4.4266905000      0.0000000000      0.0000000000
    3      0.0000000000      4.4652680000      0.0000000000
    3      4.4266905000      0.0000000000      6.3788795000
    3      0.0000000000      4.4652680000      6.3788795000
    2      0.4557632005      4.5290409576      3.1894397500
    2      8.3976177995      4.4014950424      9.5683192500
    2      4.8824537005      8.8667630424      9.5683192500
    2      3.9709272995      0.0637729576      3.1894397500
    2      7.0528157857      1.8211506233      0.3307449021
    2      1.8005652143      7.1093853767     12.4270140979
    2      2.6261252857      2.6441173767     12.4270140979
    2      6.2272557143      6.2864186233      0.3307449021
    2      1.8005652143      7.1093853767      6.7096244021
    2      7.0528157857      1.8211506233      6.0481345979
    2      6.2272557143      6.2864186233      6.0481345979
    2      2.6261252857      2.6441173767      6.7096244021
  }
  LatticeVectors [Angstrom] = {
        8.8533810000      0.0000000000      0.0000000000
        0.0000000000      8.9305360000      0.0000000000
        0.0000000000      0.0000000000     12.7577590000
  }
}

Driver = {}

Hamiltonian = xTB {
  Method = "GFN1-xTB"
  Filling = Fermi {
    Temperature [Kelvin] = 300.0
  }
  KPointsAndWeights = SupercellFolding {
    3 0 0
    0 3 0
    0 0 3
    0.5 0.5 0.5
  }
}

Options {
  WriteDetailedOut = Yes
}

ParserOptions {
  ParserVersion = 13
}

Parallel {
  UseOmpThreads = Yes
}
