Cd S  Cd S  Cd S  Cd S  Cd S  Cd S  Cd S  Cd S  Cd S  Cd S  Cd S  Cd S  Cd S  Cd S  Cd S  Cd S  Cd S  Cd S 
 1.0000000000000000
     6.2532571492664166  -10.8309590953227506    0.0000000000000000
     6.2532571492664166   10.8309590953227506    0.0000000000000000
     0.0000000000000000    0.0000000000000000   13.5592348200000004
Cd S
36 36
Cartesian
  2.0844190497554704 -1.2034398994803048  3.3913298477582816
  2.0844190497554704  1.2034398994803048  0.0015211427582749
  2.0844190497554704 -1.2034398994803048  5.9442033258117188
  2.0844190497554704  1.2034398994803048  2.5543946208117183
  2.0844190497554704 -1.2034398994803048 10.1709472577582822
  2.0844190497554704  1.2034398994803048  6.7811385527582750
  2.0844190497554704 -1.2034398994803048 12.7238207358117190
  2.0844190497554704  1.2034398994803048  9.3340120308117189
  4.1688380995109426  2.4068797989606123  3.3913298477582816
  4.1688380995109426  4.8137595979212220  0.0015211427582749
  4.1688380995109426  2.4068797989606123  5.9442033258117188
  4.1688380995109426  4.8137595979212220  2.5543946208117183
  4.1688380995109426  2.4068797989606123 10.1709472577582822
  4.1688380995109426  4.8137595979212220  6.7811385527582750
  4.1688380995109426  2.4068797989606123 12.7238207358117190
  4.1688380995109426  4.8137595979212220  9.3340120308117189
  6.2532571492664148  6.0171994974015295  3.3913298477582816
  6.2532571492664148  8.4240792963621391  0.0015211427582749
  6.2532571492664148  6.0171994974015295  5.9442033258117188
  6.2532571492664148  8.4240792963621391  2.5543946208117183
  6.2532571492664148  6.0171994974015295 10.1709472577582822
  6.2532571492664148  8.4240792963621391  6.7811385527582750
  6.2532571492664148  6.0171994974015295 12.7238207358117190
  6.2532571492664148  8.4240792963621391  9.3340120308117189
  4.1688380995109426 -4.8137595979212220  3.3913298477582816
  4.1688380995109426 -2.4068797989606123  0.0015211427582749
  4.1688380995109426 -4.8137595979212220  5.9442033258117188
  4.1688380995109426 -2.4068797989606123  2.5543946208117183
  4.1688380995109426 -4.8137595979212220 10.1709472577582822
  4.1688380995109426 -2.4068797989606123  6.7811385527582750
  4.1688380995109426 -4.8137595979212220 12.7238207358117190
  4.1688380995109426 -2.4068797989606123  9.3340120308117189
  6.2532571492664148 -1.2034398994803048  3.3913298477582816
  6.2532571492664148  1.2034398994803048  0.0015211427582749
  6.2532571492664148 -1.2034398994803048  5.9442033258117188
  6.2532571492664148  1.2034398994803048  2.5543946208117183
  6.2532571492664148 -1.2034398994803048 10.1709472577582822
  6.2532571492664148  1.2034398994803048  6.7811385527582750
  6.2532571492664148 -1.2034398994803048 12.7238207358117190
  6.2532571492664148  1.2034398994803048  9.3340120308117189
  8.3376761990218871  2.4068797989606123  3.3913298477582816
  8.3376761990218871  4.8137595979212220  0.0015211427582749
  8.3376761990218871  2.4068797989606123  5.9442033258117188
  8.3376761990218871  4.8137595979212220  2.5543946208117183
  8.3376761990218871  2.4068797989606123 10.1709472577582822
  8.3376761990218871  4.8137595979212220  6.7811385527582750
  8.3376761990218871  2.4068797989606123 12.7238207358117190
  8.3376761990218871  4.8137595979212220  9.3340120308117189
  6.2532571492664148 -8.4240792963621391  3.3913298477582816
  6.2532571492664148 -6.0171994974015295  0.0015211427582749
  6.2532571492664148 -8.4240792963621391  5.9442033258117188
  6.2532571492664148 -6.0171994974015295  2.5543946208117183
  6.2532571492664148 -8.4240792963621391 10.1709472577582822
  6.2532571492664148 -6.0171994974015295  6.7811385527582750
  6.2532571492664148 -8.4240792963621391 12.7238207358117190
  6.2532571492664148 -6.0171994974015295  9.3340120308117189
  8.3376761990218871 -4.8137595979212220  3.3913298477582816
  8.3376761990218871 -2.4068797989606123  0.0015211427582749
  8.3376761990218871 -4.8137595979212220  5.9442033258117188
  8.3376761990218871 -2.4068797989606123  2.5543946208117183
  8.3376761990218871 -4.8137595979212220 10.1709472577582822
  8.3376761990218871 -2.4068797989606123  6.7811385527582750
  8.3376761990218871 -4.8137595979212220 12.7238207358117190
  8.3376761990218871 -2.4068797989606123  9.3340120308117189
 10.4220952487773602 -1.2034398994803048  3.3913298477582816
 10.4220952487773602  1.2034398994803048  0.0015211427582749
 10.4220952487773602 -1.2034398994803048  5.9442033258117188
 10.4220952487773602  1.2034398994803048  2.5543946208117183
 10.4220952487773602 -1.2034398994803048 10.1709472577582822
 10.4220952487773602  1.2034398994803048  6.7811385527582750
 10.4220952487773602 -1.2034398994803048 12.7238207358117190
 10.4220952487773602  1.2034398994803048  9.3340120308117189
