Cd S
 1.0000000000000000
     6.2532571492664166  -10.8309590953227506    0.0000000000000000
     6.2532571492664166   10.8309590953227506    0.0000000000000000
     0.0000000000000000    0.0000000000000000   13.5592348200000004
Cd S 
36 36

Cartesian
  2.0844190497554704 -1.2034398994803046  3.3913298477582816
  2.0844190497554709  1.2034398994803046  0.0015211427582749
  2.0844190497554704 -1.2034398994803046  5.9442033258117188
  2.0844190497554709  1.2034398994803046  2.5543946208117183
  2.0844190497554704 -1.2034398994803046 10.1709472577582822
  2.0844190497554709  1.2034398994803046  6.7811385527582759
  2.0844190497554704 -1.2034398994803046 12.7238207358117190
  2.0844190497554709  1.2034398994803046  9.3340120308117189
  4.1688380995109426  2.4068797989606119  3.3913298477582816
  4.1688380995109426  4.8137595979212211  0.0015211427582749
  4.1688380995109426  2.4068797989606119  5.9442033258117188
  4.1688380995109426  4.8137595979212211  2.5543946208117183
  4.1688380995109426  2.4068797989606119 10.1709472577582822
  4.1688380995109426  4.8137595979212211  6.7811385527582759
  4.1688380995109426  2.4068797989606119 12.7238207358117190
  4.1688380995109426  4.8137595979212211  9.3340120308117189
  6.2532571492664140  6.0171994974015286  3.3913298477582816
  6.2532571492664148  8.4240792963621374  0.0015211427582749
  6.2532571492664140  6.0171994974015286  5.9442033258117188
  6.2532571492664148  8.4240792963621374  2.5543946208117183
  6.2532571492664140  6.0171994974015286 10.1709472577582822
  6.2532571492664148  8.4240792963621374  6.7811385527582759
  6.2532571492664140  6.0171994974015286 12.7238207358117190
  6.2532571492664148  8.4240792963621374  9.3340120308117189
  4.1688380995109426 -4.8137595979212211  3.3913298477582816
  4.1688380995109435 -2.4068797989606123  0.0015211427582749
  4.1688380995109426 -4.8137595979212211  5.9442033258117188
  4.1688380995109435 -2.4068797989606123  2.5543946208117183
  4.1688380995109426 -4.8137595979212211 10.1709472577582822
  4.1688380995109435 -2.4068797989606123  6.7811385527582759
  4.1688380995109426 -4.8137595979212211 12.7238207358117190
  4.1688380995109435 -2.4068797989606123  9.3340120308117189
  6.2532571492664148 -1.2034398994803048  3.3913298477582816
  6.2532571492664148  1.2034398994803039  0.0015211427582749
  6.2532571492664148 -1.2034398994803048  5.9442033258117188
  6.2532571492664148  1.2034398994803039  2.5543946208117183
  6.2532571492664148 -1.2034398994803048 10.1709472577582822
  6.2532571492664148  1.2034398994803039  6.7811385527582759
  6.2532571492664148 -1.2034398994803048 12.7238207358117190
  6.2532571492664148  1.2034398994803039  9.3340120308117189
  8.3376761990218888  2.4068797989606110  3.3913298477582816
  8.3376761990218871  4.8137595979212202  0.0015211427582749
  8.3376761990218888  2.4068797989606110  5.9442033258117188
  8.3376761990218871  4.8137595979212202  2.5543946208117183
  8.3376761990218888  2.4068797989606110 10.1709472577582822
  8.3376761990218871  4.8137595979212202  6.7811385527582759
  8.3376761990218888  2.4068797989606110 12.7238207358117190
  8.3376761990218871  4.8137595979212202  9.3340120308117189
  6.2532571492664157 -8.4240792963621391  3.3913298477582816
  6.2532571492664157 -6.0171994974015295  0.0015211427582749
  6.2532571492664157 -8.4240792963621391  5.9442033258117188
  6.2532571492664157 -6.0171994974015295  2.5543946208117183
  6.2532571492664157 -8.4240792963621391 10.1709472577582822
  6.2532571492664157 -6.0171994974015295  6.7811385527582759
  6.2532571492664157 -8.4240792963621391 12.7238207358117190
  6.2532571492664157 -6.0171994974015295  9.3340120308117189
  8.3376761990218888 -4.8137595979212220  3.3913298477582816
  8.3376761990218871 -2.4068797989606132  0.0015211427582749
  8.3376761990218888 -4.8137595979212220  5.9442033258117188
  8.3376761990218871 -2.4068797989606132  2.5543946208117183
  8.3376761990218888 -4.8137595979212220 10.1709472577582822
  8.3376761990218871 -2.4068797989606132  6.7811385527582759
  8.3376761990218888 -4.8137595979212220 12.7238207358117190
  8.3376761990218871 -2.4068797989606132  9.3340120308117189
 10.4220952487773602 -1.2034398994803046  3.3913298477582816
 10.4220952487773602  1.2034398994803053  0.0015211427582749
 10.4220952487773602 -1.2034398994803046  5.9442033258117188
 10.4220952487773602  1.2034398994803053  2.5543946208117183
 10.4220952487773602 -1.2034398994803046 10.1709472577582822
 10.4220952487773602  1.2034398994803053  6.7811385527582759
 10.4220952487773602 -1.2034398994803046 12.7238207358117190
 10.4220952487773602  1.2034398994803053  9.3340120308117189
