Cd S 
 1.0000000000000000
    12.3977854500000007    0.0000000000000000    0.0000000000000000
    -6.1988927199999999   10.7367971499999992    0.0000000000000000
     0.0000000000000000    0.0000000000000000   13.4479464199999992
 Cd  S  
  36  36
Cartesian
  0.0902440400000000  2.5053877000000000  0.0048096600000000
  4.1261650000000003  2.4072966400000002  0.0906713000000000
  8.1964279500000004  2.4395150900000000  0.0605035200000000
 -2.0119805600000000  6.0166148799999997 13.2649376199999995
  1.9118717999999999  5.9329842499999996  0.0571596900000000
  6.1925611800000002  5.9717301300000001 13.4395815299999999
 -4.0333622399999998  9.6111637900000009  0.0127774300000000
 -0.0008072200000000  9.6150015500000006  0.0279906900000000
  4.1396490799999999  9.5439555200000008 13.3936538299999999
 -0.0396184900000000  2.2795837300000001  6.7877678499999998
  4.1385824299999996  2.3900435799999999  6.7152021900000003
  8.2896232800000007  2.3710505099999999  6.6904957600000001
 -2.1219769400000001  6.0313429699999999  6.7220715400000000
  2.0413290399999999  5.9494573900000001  6.7420305699999998
  6.1457858800000000  6.0502349100000004  6.6672008199999997
 -4.0429651299999998  9.6092033600000004  6.8309314499999996
 -0.0071523400000000  9.5358813399999995  6.7424458500000002
  4.2081469100000000  9.6187606100000007  6.6780872000000002
  2.1711217600000001  1.1299703800000001  3.3860218500000001
  6.0060812500000003  1.0533755700000000  3.4093174600000000
 10.3428178000000006  1.2008224999999999  3.3305492100000000
  0.1073323400000000  4.9178220100000001  3.2963170599999998
  3.9835953599999998  4.8982126499999996  3.4165044500000001
  8.2697084099999998  4.7959296199999999  3.2992230199999999
 -2.1192111699999998  8.2951203099999997  3.3103880399999999
  2.2196640500000000  8.4916104699999995  3.4996092600000002
  6.1071142199999997  8.2862089900000004  3.4532703200000001
  2.0343896799999999  1.1202020399999999 10.0478436299999991
  6.1092491700000000  1.2150631500000000 10.0176446499999994
 10.2683437400000006  1.1015557700000000 10.2640703299999991
  0.0124601500000000  4.8643965700000003 10.0281485700000008
  4.1244763600000001  4.7924987899999998 10.1062889400000007
  8.3395790999999999  4.9586814300000004 10.1662314100000000
 -1.9823189800000001  8.4851421899999995 10.1921181700000005
  2.1125118500000002  8.4669484700000002 10.0523061899999995
  6.0770273299999999  8.3640805100000009 10.0622048199999998
 -0.0097170700000000  2.4627722799999998  2.5703436499999999
  4.1289303899999998  2.4240772900000001  2.6257853700000000
  8.1222362500000003  2.3824107899999998  2.5044670099999999
 -2.0248296200000002  5.9684573399999996  2.6334871400000002
  2.1722014900000000  5.9638757299999998  2.5892904699999999
  6.2235231000000004  5.9474607800000001  2.6629896500000001
 -4.2004992600000000  9.5438084300000003  2.5293092599999998
  0.0006127600000000  9.5437986600000002  2.5332813800000000
  4.1336807899999997  9.5663664399999995  2.5134626099999999
  0.0586039000000000  2.2771367100000002  9.3693963399999998
  4.1553186999999996  2.3672126400000000  9.3583808600000005
  8.1557756099999992  2.2984705100000000  9.2055781700000008
 -2.2297169800000001  5.8679597399999999  9.2687055199999993
  2.0687978199999999  5.9793157800000003  9.2259688900000008
  6.0629942200000002  5.9889638700000001  9.3458364799999991
 -4.1676233700000003  9.7639405799999999  9.2659560899999995
 -0.0028177600000000  9.5457608100000009  9.2471689000000001
  4.0945210799999998  9.5014392000000001  9.1375444699999999
  2.2761492900000002  1.2897593700000001  5.9224581199999999
  6.3852348499999998  1.1184696599999999  5.8274965200000004
 10.2813758600000007  1.2488202799999999  5.8881931600000001
 -0.0418997400000000  4.7344608099999999  5.8689051699999997
  4.1301583900000001  4.8581201600000004  5.7429855900000000
  8.3570633900000004  4.8725896000000004  5.9488273899999999
 -2.0691874100000001  8.3463310800000006  5.8988600699999996
  2.0610205000000001  8.3104328100000000  5.9079976800000003
  6.3894491100000002  8.4205276100000006  5.7820170500000003
  2.0707080699999998  1.1535255200000001 12.6034412000000007
  6.2127996899999998  1.2246880400000000 12.5625802899999996
 10.1677528200000005  1.1603760200000000 12.5559835399999997
  0.0132082900000000  4.8817554999999997 12.4865156099999997
  4.1225681500000002  4.9210144900000001 12.7514443300000000
  8.1146132299999998  4.9631971100000003 12.6727804299999995
 -2.0433796200000001  8.3485925699999992 12.6228909700000003
  2.0974833799999999  8.4357606500000006 12.6372352200000009
  6.2512948200000000  8.3175648399999993 12.6069270499999995
