Cd S 
 1.0000000000000000
    12.3977854500000007    0.0000000000000000    0.0000000000000000
    -6.1988927199999999   10.7367971499999992    0.0000000000000000
     0.0000000000000000    0.0000000000000000   13.4479464199999992
 Cd  S  
  36  36
Cartesian
 -0.1027160900000000  2.3589538900000000 13.4157419499999992
  4.2041065299999998  2.4074551199999998 13.3812591300000001
  8.2821754300000006  2.3580862499999999  0.0761671500000000
 -2.2118628000000000  5.9771375000000004 13.3834572000000005
  2.0794896100000000  6.0768066500000000  0.0784144400000000
  6.0906810800000004  5.9613956400000001  0.0366623300000000
 -4.1632366599999999  9.7310696599999993 13.4164731199999991
  0.0140901500000000  9.4730487500000002 13.3644867200000004
  4.2442459100000001  9.5905511800000003 13.3656509099999994
  0.0237668000000000  2.4448623399999998  6.6624230400000002
  4.1359908599999997  2.3835429800000001  6.7296313000000003
  8.2126269599999997  2.3008299200000000  6.7182942800000003
 -2.0637127999999998  5.9547651300000002  6.6816939399999997
  2.0674237099999999  5.9373558400000004  6.7167281299999999
  6.2070909500000004  5.9607364000000000  6.7152372900000001
 -4.1125783800000004  9.5506325200000006  6.6859438999999998
  0.2172002200000000  9.6334751799999996  6.7069454200000003
  4.1502938800000004  9.3614893400000003  6.7442985699999998
  2.1084094200000001  1.1158656600000001  3.3847650100000002
  6.2930969899999996  1.0383166800000001  3.3056515399999999
 10.2240183699999996  1.3437657800000000  3.4075178600000000
 -0.0584958500000000  4.6506280100000001  3.4707673099999998
  4.1214050599999998  4.6450101999999998  3.3812944900000002
  8.3691008300000007  4.7394156299999999  3.3563575600000002
 -1.9236782600000000  8.1865476699999995  3.2593128800000000
  2.1060580000000000  8.4628125500000007  3.3489860700000000
  6.2594502099999998  8.5706876199999993  3.2824005800000000
  2.0461162499999999  1.1957543100000001 10.0710304399999995
  6.1559339000000000  1.2928733600000000 10.2520797399999992
 10.5534655300000004  1.2124044000000000 10.1933933099999994
 -0.0927400800000000  4.8260304500000002 10.1317270799999992
  4.1448315999999998  4.8000971100000003 10.1324599899999992
  8.1679321999999992  4.7425779400000003 10.1816486800000003
 -2.0458916000000000  8.3130220999999995 10.2718439200000002
  2.0449584900000000  8.1997891500000009 10.0813727199999992
  6.2330462700000000  8.3221511699999997 10.2435744500000006
 -0.0113894700000000  2.3893333399999999  2.5683376199999999
  4.2089502799999998  2.5531355300000000  2.5985515299999999
  8.2826450000000005  2.3893405300000001  2.4539160400000002
 -2.0329093199999999  6.0022289700000000  2.5084880799999998
  1.9635445300000001  5.9338126999999998  2.5148443800000000
  6.1711881399999999  5.9356351600000004  2.4508056599999999
 -4.0777727800000001  9.6378422599999993  2.5317259900000000
 -0.0118736600000000  9.5223611399999992  2.4447739899999998
  4.2192385899999998  9.3906395299999996  2.7021118799999999
 -0.0432553100000000  2.3733809300000002  9.3136786800000007
  4.1464270699999997  2.4328927400000002  9.2865037400000006
  8.2820064500000008  2.3882072600000002  9.1497412199999992
 -2.1358716900000001  5.8894526599999999  9.0682683100000006
  2.1361950300000001  5.8925356200000003  9.1708861000000006
  6.2590124999999999  5.9643514800000004  9.3947291800000006
 -4.1313571900000001  9.6490303300000004  9.1261646800000005
  0.0512106100000000  9.6192293800000002  9.2910145899999996
  4.1344010400000002  9.5449193599999997  9.2515365299999992
  2.2427891400000002  1.3016560600000000  5.9725693399999997
  5.9761187199999997  1.1190850900000000  5.9375350200000003
 10.4122211599999996  1.1501971099999999  5.7881983999999997
  0.0507902600000000  4.7843223899999998  5.6853939599999999
  4.0674148099999998  4.7791467200000000  5.8798961800000002
  8.2288585699999999  4.9287122400000003  5.8541706600000003
 -2.0516724399999999  8.1490269699999995  5.9445822799999997
  2.0498034199999999  8.4899154499999998  5.9243436599999999
  6.2301882099999997  8.3852736599999993  5.9351431699999999
  1.9304196199999999  1.0373062399999999 12.6322129499999996
  6.2135637700000004  1.2270439099999999 12.6143821900000006
 10.4290286499999993  1.1980977200000000 12.6535587399999994
 -0.0336174000000000  5.0041199799999996 12.6651839499999994
  4.2489910399999999  4.7901785600000002 12.5231136599999999
  8.0491046900000001  4.8391379299999997 12.5722138599999997
 -2.0528036099999998  8.2680712100000004 12.5101043900000004
  1.8933565100000000  8.2909960999999992 12.6381318000000000
  6.2035163000000004  8.2491724099999999 12.7065261700000001
