Cd S 
 1.0000000000000000
    12.3977854500000007    0.0000000000000000    0.0000000000000000
    -6.1988927199999999   10.7367971499999992    0.0000000000000000
     0.0000000000000000    0.0000000000000000   13.4479464199999992
 Cd  S  
  36  36
Cartesian
  0.0929509700000000  2.4340337399999998  0.0149430900000000
  3.9564887799999999  2.2883687899999998 13.3990075900000001
  8.2687957399999998  2.3740419899999998  0.0052234500000000
 -2.1474207199999999  5.9888378199999996  0.0499382800000000
  1.9538681200000001  5.9233231699999997  0.1680958300000000
  6.1545682299999998  5.9847404400000004 13.4340302200000004
 -4.0610609400000000  9.7621226199999995 13.3789904600000007
 -0.0909298800000000  9.7280719399999995  0.0384566900000000
  4.0913919999999999  9.4178976799999994  0.0106206500000000
 -0.0059405200000000  2.2611954600000002  6.8255824000000000
  4.0463550599999998  2.4091011800000000  6.8810214199999997
  8.2366635299999995  2.4171699900000001  6.7300202100000002
 -2.0662245900000000  5.9647443400000002  6.7258054899999999
  2.1322356099999999  6.0738671300000000  6.7198434799999998
  6.1178739400000000  6.0645325600000000  6.6773120600000002
 -4.1451889599999996  9.5628246899999994  6.8019918700000002
  0.0014158300000000  9.4965912100000001  6.6888171900000000
  4.1281879500000001  9.5774863200000002  6.7322068499999999
  2.0929113899999998  1.2132109400000000  3.3287026700000002
  6.1350030899999997  1.2847337999999999  3.3399947700000001
 10.3726298200000002  1.1777926100000000  3.3922658700000001
 -0.1819044600000000  4.7307448100000000  3.4793921499999998
  4.1484605600000002  4.7779163899999997  3.3749940000000000
  8.2303068199999991  4.8890012299999999  3.2616035999999999
 -2.0849793399999998  8.2018928100000004  3.3744843200000001
  1.8563497400000000  8.3971956900000002  3.4877068800000002
  6.2148734699999997  8.2994413399999996  3.3501953100000001
  2.0075487900000000  1.0843313699999999 10.0938096500000007
  6.2127300800000000  1.2135646099999999 10.0906371499999992
 10.3307907700000001  1.1800585100000001 10.0647868299999992
 -0.0554637200000000  4.8448888800000001 10.2686279799999998
  4.1653510499999999  4.8487844100000004  9.9741997100000006
  8.2282313100000000  4.9026966600000002  9.9949051099999995
 -1.9798192200000000  8.3779709199999992 10.1666121300000007
  1.9950678200000000  8.2301259699999996 10.0453205200000006
  6.1986622499999999  8.3394627499999991 10.0844052299999998
 -0.0576169100000000  2.3992578999999998  2.4977992400000000
  4.1166017799999999  2.3894139700000001  2.6743196800000000
  8.2644152900000005  2.3843255900000000  2.5359844200000001
 -2.0410728300000001  5.9743870599999997  2.4887163700000001
  2.1504963099999999  5.9382843599999999  2.4962972400000001
  6.1246383599999996  5.9554758000000003  2.4469481200000001
 -4.1491722500000003  9.5363041600000003  2.5342609299999999
  0.0870293600000000  9.7442725899999996  2.4607283700000000
  4.1055249800000002  9.7531007100000000  2.4008173600000000
  0.1107129100000000  2.4466449699999999  9.3160886900000008
  4.1361039300000000  2.4373897400000000  9.2380502500000006
  8.3155888299999994  2.3334714999999999  9.0321465900000000
 -2.2880790599999998  5.9832533999999997  9.2365487900000005
  1.9994584900000001  6.0175832299999996  9.2115627700000005
  6.1588866900000001  5.8381877800000002  9.2898066900000007
 -4.1375131200000004  9.5440187600000002  9.2614301799999996
 -0.0462750400000000  9.5215846499999994  9.2372685200000006
  4.1181909299999999  9.5177722300000003  9.1849820999999991
  2.1363488899999998  1.1001322800000000  6.0814662400000001
  6.1748812500000003  1.1608282599999999  5.8544783499999999
 10.1571674099999996  1.1987475100000000  5.7789289999999998
  0.0368937700000000  4.9156870000000001  5.9217585599999998
  4.2599931399999997  4.7853400300000004  6.0288519500000000
  8.2333692599999999  4.6707196700000004  6.0313002899999999
 -1.9279525799999999  8.3269898100000006  5.9419031799999997
  2.0794291700000000  8.2786498500000008  5.9196052699999999
  6.1697813000000004  8.3359319500000009  5.8739161400000004
  2.1005287699999999  1.1960504300000001 12.6974385800000000
  6.3616259299999998  1.1690680000000000 12.4877638500000003
 10.3028668600000000  1.1263081699999999 12.7201587600000003
 -0.1924270800000000  4.7942997800000002 12.6383080999999997
  4.3593603400000003  4.8388587699999999 12.6461040100000002
  8.2224447600000001  4.9424307499999998 12.6346503899999991
 -2.0658459599999999  8.3508589999999998 12.6199043199999998
  2.1026942900000001  8.3554833399999993 12.5638594599999998
  6.1668398699999996  8.4778405200000009 12.6648032399999995
