Cd S 
 1.0000000000000000
    12.3977854500000007    0.0000000000000000    0.0000000000000000
    -6.1988927199999999   10.7367971499999992    0.0000000000000000
     0.0000000000000000    0.0000000000000000   13.4479464199999992
 Cd  S  
  36  36
Cartesian
 -0.0164894300000000  2.3986994799999999 13.4469500600000007
  4.0264720499999997  2.2491204300000001 13.4368706899999992
  8.2512866000000002  2.5131002599999999  0.0237486700000000
 -2.0620474000000000  5.9583735500000001  0.0065858600000000
  2.0647500000000001  5.8415861900000001  0.0228124200000000
  5.9862983500000002  5.9570540000000003  0.0562442900000000
 -4.1106029199999998  9.5815257200000001  0.0343931200000000
  0.0202522800000000  9.5472145699999995 13.4207160800000000
  4.1628901599999999  9.6895219000000008 13.3815122199999994
 -0.0214474900000000  2.3548921599999999  6.7921243100000002
  4.1314318300000004  2.3856780999999998  6.7252557399999997
  8.2697845900000004  2.4054808400000001  6.7273949100000001
 -2.0121279099999998  6.0116535100000004  6.7258500100000003
  2.0681092500000000  5.8809493300000000  6.7560297499999997
  6.0549526399999998  6.0732361299999997  6.7352045299999999
 -4.1471067100000001  9.4697464300000007  6.6612428399999999
 -0.0597475900000000  9.4280699400000003  6.8975216499999998
  4.1739298900000001  9.5568814399999997  6.6183964800000004
  1.9645947399999999  1.0705610999999999  3.3948490800000002
  6.2290131500000001  1.1777721000000001  3.2806796500000002
 10.3097521000000008  1.1905131400000000  3.3818767900000002
  0.0353602200000000  4.8993362500000002  3.4839105300000002
  4.1071588200000004  4.8205414800000002  3.3494712700000000
  8.3054460799999994  4.6778829399999999  3.3959866399999998
 -1.9358377000000000  8.1901121799999999  3.3535944099999999
  2.1157933000000000  8.3492242200000000  3.3605927300000000
  6.1333041000000001  8.3380611699999996  3.4339093200000002
  2.1917138000000000  1.1479256300000000 10.0582054099999993
  6.2278299600000002  1.2383515800000000 10.1090124200000009
 10.2534587800000008  1.0855947699999999 10.2213717600000003
  0.0314431400000000  4.7187407500000003 10.0787787499999997
  4.1116757100000001  4.6805967700000002 10.0545499800000009
  8.2647283999999992  4.7939363400000001 10.1533778699999999
 -2.0449588500000000  8.3199394899999994 10.0860878399999994
  2.0776485999999998  8.3481888699999995 10.0509252199999999
  6.2293529100000002  8.3548435300000001 10.0348733499999998
  0.0225522500000000  2.2026379399999998  2.5235969800000002
  4.1323397799999997  2.2765953600000000  2.5265445000000000
  8.2024328099999995  2.4827631200000000  2.5605336500000000
 -2.0459008999999999  5.8082490800000004  2.4059552800000001
  2.0629851200000000  5.9721429600000002  2.5537464700000001
  6.1760689600000003  5.9872479099999998  2.5385804099999998
 -4.3177702900000003  9.5966523699999993  2.6185451300000002
  0.1639328200000000  9.6394460199999994  2.6269522500000000
  4.1209597899999997  9.4894639099999996  2.4815644799999999
 -0.1622411400000000  2.4143434199999998  9.2999853100000003
  4.2847534999999999  2.2790421699999999  9.3403981300000005
  8.2648818199999994  2.3990822399999998  9.3030308599999998
 -2.0214719900000002  6.0028458999999996  9.4897673000000005
  2.2574801500000001  5.9859958999999998  9.3123513700000000
  6.1442690100000004  5.9472653700000002  9.3117893800000004
 -4.3003298900000004  9.4243056200000002  9.2069142199999998
  0.0038707200000000  9.5411044700000005  9.2522399899999996
  4.3477585599999999  9.5226912899999991  9.3431463600000004
  2.0849505800000001  1.2285769099999999  5.6932619500000001
  6.2417024600000000  1.0609696000000000  5.9235455200000002
 10.3154130500000001  1.2547713700000001  5.7980188899999998
  0.0794361500000000  4.6556864400000002  5.8983623600000001
  4.1842218500000001  4.6847044599999998  6.0474332500000001
  8.1798120599999997  4.6576772499999999  5.8582736300000002
 -2.0268269100000000  8.4444398500000002  6.0216185700000002
  2.0307671200000001  8.3208836900000005  5.9923052800000001
  6.2032745399999998  8.5129456599999997  5.9244345699999998
  2.0360555699999998  1.1437725299999999 12.8013137500000003
  6.1788141999999997  1.3175547900000000 12.5522358599999997
 10.3982140800000007  1.1937570500000001 12.6261186100000007
 -0.0895925300000000  4.6850917299999999 12.7853201100000007
  4.1102698000000002  4.7636145499999998 12.6083127200000007
  8.0412056900000000  4.8416857699999998 12.6247769099999996
 -2.0896122099999999  8.4081826500000005 12.4403603799999996
  2.1572684799999999  8.2272821199999999 12.6700589699999995
  6.0321184600000004  8.4047334599999992 12.4550329000000009
