Cd S 
 1.0000000000000000
    12.3977854500000007    0.0000000000000000    0.0000000000000000
    -6.1988927199999999   10.7367971499999992    0.0000000000000000
     0.0000000000000000    0.0000000000000000   13.4479464199999992
 Cd  S  
  36  36
Cartesian
 -0.0536142800000000  2.5878377100000001 13.3241642599999999
  4.0774142400000004  2.5448104300000001  0.0123925500000000
  8.2087050399999999  2.3742799200000002  0.0295673300000000
 -2.0657188199999998  5.9655814899999999  0.0023044400000000
  2.2855382600000000  5.9173414900000001 13.3468531000000006
  6.2310347300000002  5.9920626199999996  0.1037846600000000
 -4.1643534000000004  9.4808721100000000 13.4287163899999999
 -0.0574936100000000  9.5061040200000004 13.2461797499999996
  4.0787796700000003  9.4630355000000002 13.3926916299999998
  0.0271934300000000  2.4142650400000001  6.6700542100000000
  4.1683599300000003  2.4313327899999999  6.6073598799999997
  8.3654408799999995  2.3280780900000000  6.7245822700000000
 -2.0826623199999998  6.0889901300000000  6.7436865499999996
  1.9657096700000001  6.1008235800000001  6.6173200999999997
  6.1837515600000001  6.0081259400000002  6.7052746499999998
 -4.2258748600000002  9.4254688400000006  6.6428249399999997
 -0.1373657800000000  9.4995789399999992  6.8115664100000002
  4.0085429299999999  9.6099285200000004  6.6805101200000001
  2.1754808200000002  1.0708572300000001  3.3335577800000000
  6.1913302600000000  1.1940322299999999  3.3783624400000001
 10.3047247300000002  1.1962769700000000  3.4021912599999999
 -0.0011480300000000  4.7803287299999999  3.3622495099999998
  4.0476085399999997  4.9639713399999996  3.2585374699999998
  8.2520808599999995  4.8339078200000003  3.3485476699999999
 -2.2227638000000001  8.4160117099999994  3.4367949800000002
  2.0376230899999999  8.3147974300000005  3.3978793100000000
  6.2464451199999997  8.2496471899999992  3.3640189899999999
  2.0860224900000000  1.2190250300000001 10.0156660500000001
  6.3807234199999998  1.1912769599999999 10.0839325399999993
 10.1419768399999999  1.1868158200000001 10.1378588000000001
  0.0004737200000000  4.7651941400000002 10.0841183900000004
  4.1221631800000003  4.8119317400000003 10.0717515199999994
  8.2047184699999995  4.8441243099999998 10.1687137700000001
 -1.9701558900000000  8.3610134299999999 10.0880443799999995
  2.0600533500000000  8.2937433200000008 10.2013652500000003
  6.3584480100000000  8.2645957100000000  9.9920717700000008
  0.0254984000000000  2.6257339900000001  2.4722345600000000
  4.1024048899999999  2.2604952100000002  2.7461631799999999
  8.2226213700000006  2.4023726399999998  2.4756182000000000
 -1.9405157000000000  5.9970007900000004  2.6592076800000002
  2.1448737900000001  6.0209452399999996  2.5901090400000002
  6.1336985999999998  6.0112737500000000  2.4992170599999999
 -4.1372682599999999  9.3651458699999992  2.5633747900000001
  0.0492914300000000  9.5785367000000008  2.4906093000000000
  4.2560088699999996  9.5850418099999999  2.4253567700000001
  0.0068958400000000  2.3450205400000002  9.2117420299999999
  3.9461013600000001  2.5153407099999998  9.2210363100000006
  8.1721380200000002  2.2849675899999999  9.2988333599999997
 -2.0444813499999999  6.2040933200000001  9.1963103799999999
  2.1118852700000001  5.9624071499999998  9.3090018899999993
  6.3921453799999997  6.1077222899999999  9.2678475400000000
 -4.1526188900000003  9.5508620700000009  9.2978597199999999
  0.0861370900000000  9.5222074899999996  9.2372916499999995
  4.0943269300000003  9.5319585500000006  9.3839349199999997
  2.2516337200000001  1.1885013900000001  5.7981942499999999
  6.2135096499999998  1.0835623999999999  5.8145520700000004
 10.3820649700000001  1.1433041900000001  5.9984625500000002
 -0.0033857700000000  4.7151957800000002  5.8691317700000001
  3.9943572000000001  4.8158462699999998  5.7400481599999997
  8.3994672200000000  4.5732864600000003  5.8791410800000001
 -2.0673361699999999  8.3712447399999999  5.8962903000000004
  2.0648400100000002  8.2670323200000002  5.9781462000000003
  6.0591179300000002  8.4224675300000005  5.9621358799999999
  2.2192719099999998  1.1413477299999999 12.7830747000000002
  6.1589029200000001  1.2010793300000000 12.6169531599999996
 10.3158819400000006  1.1567845600000000 12.5840472499999994
  0.0509616600000000  4.8384267200000002 12.6409059700000004
  4.1196679400000003  4.7387672399999996 12.6390193600000007
  8.3386256499999991  4.8231719899999996 12.6750706199999996
 -2.0096662599999999  8.3926558500000006 12.4951938400000007
  2.0367235699999999  8.3285266799999995 12.6433007800000006
  6.1967916799999996  8.3742066000000008 12.6104734100000009
