Cd S 
 1.0000000000000000
    12.3977854500000007    0.0000000000000000    0.0000000000000000
    -6.1988927199999999   10.7367971499999992    0.0000000000000000
     0.0000000000000000    0.0000000000000000   13.4479464199999992
 Cd  S  
  36  36
Cartesian
  0.0101769700000000  2.3879738499999998  0.0018609300000000
  4.1019151200000001  2.5944818600000001  0.0681391300000000
  8.1850579400000001  2.3915819500000000 13.3972347500000009
 -2.0277179400000001  5.9324783300000004  0.1982051100000000
  2.0512798700000001  5.9864106599999998  0.0447948400000000
  6.0197914099999998  6.0540621400000001  0.0867687100000000
 -4.1659609499999997  9.5647961800000001  0.0357229900000000
 -0.0052012400000000  9.5560932600000008  0.0204992400000000
  4.1210837099999997  9.6023631599999995  0.0314443900000000
  0.0588917800000000  2.4308333100000001  6.7838398399999997
  4.1680976599999999  2.5471522300000000  6.7430186000000001
  8.2710896999999992  2.3960352500000002  6.8097681500000000
 -2.1059353199999999  5.9492560799999996  6.6733800199999997
  2.0637258200000002  5.9634239300000003  6.7300323200000003
  6.1361459199999997  5.8104874899999999  6.8135253699999998
 -4.2595998200000000  9.5007932700000008  6.6820456100000003
 -0.0348049200000000  9.4935999399999993  6.7585500300000003
  4.2248173400000004  9.4144537499999998  6.6687072599999997
  2.0901606899999998  1.1699259799999999  3.3754213700000002
  6.2968930700000003  1.1319593699999999  3.5090639700000001
 10.2330233199999991  1.1063394400000000  3.2949611000000001
 -0.0672098200000000  4.7381265700000004  3.3350039699999998
  4.0584066400000003  4.6180038200000002  3.3051772300000000
  8.2429937800000008  4.7487259399999999  3.2716621300000002
 -2.1460172900000001  8.1563693300000004  3.2748713500000002
  1.9098269100000000  8.4312643000000005  3.5303156300000000
  6.2987983600000002  8.5276404699999997  3.3565314499999999
  2.1225561000000002  1.2893359099999999  9.9549796399999995
  6.1987182900000004  1.1949632200000000 10.0904273599999996
 10.4188640800000005  1.2395445500000000 10.1459185600000001
 -0.0388027700000000  4.8601288000000000 10.0442284199999996
  4.1479761799999997  4.8395462499999997 10.1156375500000006
  8.2661643799999993  4.7742634099999997 10.0866607199999994
 -2.0066795800000001  8.3505365800000000 10.0160054800000005
  2.0986970600000001  8.1843966600000009 10.1843289899999991
  6.0237567099999998  8.4334965900000007 10.1128122699999992
  0.0870859500000000  2.2900111999999999  2.6580389200000001
  4.1309594100000000  2.3828993100000000  2.5321662800000002
  8.2652724800000001  2.3469314699999999  2.5964383199999999
 -1.9755509099999999  5.9603641600000001  2.3943916600000001
  2.0561098000000002  5.9526146600000001  2.6639260299999998
  6.1358853800000004  6.0280848899999997  2.6025369600000001
 -4.1317417000000001  9.5731279399999991  2.5143794900000001
 -0.0237979200000000  9.5016446000000006  2.5434798999999999
  4.2449564899999999  9.5891782699999997  2.3860638900000000
  0.0027730100000000  2.3787953900000001  9.2442809500000003
  4.3006079799999997  2.4066299999999998  9.3523241800000001
  8.3487328800000000  2.3820899700000000  9.0771087300000008
 -1.9942827800000000  5.9430698599999996  9.3370677499999992
  2.0573457400000001  6.0042307399999997  9.2722623700000000
  6.1792966600000003  6.0388686099999997  9.1695550200000007
 -4.1191028400000000  9.6935423000000007  9.2628045599999993
 -0.0079071200000000  9.5478326899999999  9.2502827700000001
  4.0767338500000001  9.5393302200000001  9.3024843399999995
  2.2331685900000000  1.3517019900000000  5.9672392399999996
  6.1803046600000000  1.1099624699999999  5.9772080699999997
 10.3006776599999998  1.0479669100000000  5.9753768699999998
 -0.0144822200000000  4.7746264199999997  5.9695143699999997
  4.2860319599999999  4.7040313400000002  5.9318613300000003
  8.2016693000000007  4.7564634100000003  5.8802967900000001
 -2.0664664099999999  8.3516585699999997  5.8990191599999999
  2.0964869699999999  8.3344849599999993  5.9099944300000002
  6.1849661700000000  8.2347325900000001  5.9299121799999996
  2.0674844600000002  1.1884829200000000 12.6254214699999991
  6.2073448500000001  1.2296341600000000 12.6332340500000004
 10.4743499300000007  1.2435574300000001 12.6743071799999996
 -0.1017951100000000  4.6401042300000004 12.5872253999999995
  4.1259826300000002  4.7672019299999997 12.6342484299999995
  8.1990026599999997  4.7213134999999999 12.4721470199999995
 -2.0811814000000002  8.4815541700000008 12.5634725599999992
  2.0555878600000002  8.3906103800000000 12.5924130800000000
  6.2029128299999998  8.4314861200000006 12.6330722800000004
