Cd S 
 1.0000000000000000
    12.3977854500000007    0.0000000000000000    0.0000000000000000
    -6.1988927199999999   10.7367971499999992    0.0000000000000000
     0.0000000000000000    0.0000000000000000   13.4479464199999992
 Cd  S  
  36  36
Cartesian
  0.0109045400000000  2.3829291600000002 13.2145991299999999
  4.0937933299999996  2.3614265799999998  0.0594368300000000
  8.4039221200000007  2.4409834500000001 13.2620191500000004
 -2.1301481899999999  5.9093813300000004 13.4465099099999996
  1.9844414900000000  6.0838727500000003  0.0897663900000000
  6.1705601899999998  5.9682973600000002 13.4377803100000008
 -4.2099252399999996  9.5907141700000000 13.2208064400000005
 -0.0334087400000000  9.4435867600000005  0.1383555700000000
  4.1481391500000004  9.4810807300000004  0.0808543000000000
 -0.0446857700000000  2.4706195900000001  6.6989445600000002
  4.1849874700000003  2.4325421800000000  6.6634140100000003
  8.2567050500000008  2.3701204800000002  6.7395611300000002
 -2.2722531600000000  5.8739809300000001  6.7438409400000001
  2.0633314500000002  5.9655506699999998  6.7143323800000001
  6.2083577600000002  5.9542155100000000  6.7085914500000001
 -4.0263845800000002  9.5709041300000006  6.8597165100000002
  0.0934527800000000  9.5394106399999998  6.6083160300000001
  4.0482780800000002  9.6023088300000001  6.7061857500000004
  2.0694583700000000  1.2027286100000001  3.3716221900000001
  6.2292477100000001  1.1742012600000000  3.4195101999999999
 10.3288793999999999  1.1923800499999999  3.3670324100000002
 -0.0864882500000000  4.5942846299999998  3.3208263400000000
  4.0657429699999996  4.8966386300000000  3.4334686300000001
  8.3356104500000008  4.9682303100000000  3.4649302300000002
 -2.1736700600000001  8.3570387799999999  3.3426461700000001
  1.9890372900000000  8.2920266100000006  3.5163114700000002
  6.2171902499999998  8.3596296799999994  3.3593809299999999
  2.0118722099999999  1.2643225000000000 10.0566574099999997
  6.1201168199999998  1.3344105900000001 10.1116137899999998
 10.4444151699999992  1.1874330700000000 10.0526250499999996
  0.0684966500000000  4.7610037900000002 10.1119057399999992
  4.1619944799999997  4.5936285000000003 10.1862548700000008
  8.2168021000000007  4.8355516200000004 10.0927581600000007
 -2.0021421099999999  8.2394596799999995 10.1575831700000005
  2.0489634699999999  8.3394753099999992 10.1425743199999996
  6.0490195000000000  8.4064058199999998 10.1457144199999991
  0.0293595700000000  2.3374750400000002  2.4103153800000001
  4.0905289299999996  2.2668243399999999  2.5745729000000002
  8.2841194100000006  2.3917400999999998  2.6302775199999999
 -2.0527259400000002  6.0401206299999997  2.3654257300000001
  2.0356503600000000  5.8040395000000000  2.5314735700000002
  6.2147034400000001  6.0242956599999999  2.5262151600000000
 -4.2183726500000001  9.5375581100000009  2.4210207499999998
  0.0017617300000000  9.6185120600000005  2.4729099200000002
  4.0854812300000001  9.4748933300000004  2.7026246500000002
 -0.0602967500000000  2.1761853699999998  9.1572135699999997
  4.3339803400000001  2.4256532399999999  9.2846272100000000
  8.2660268800000001  2.3874577299999999  9.2568293700000002
 -2.0467139500000000  5.9298856100000004  9.2823561300000001
  2.2179880000000001  5.9420059500000004  9.2862771399999993
  6.1539748699999999  5.9641766799999996  9.1745291499999997
 -4.1547109600000001  9.4720674000000002  9.2079928800000008
 -0.0458861800000000  9.5856780700000002  9.1494516800000003
  4.0968970499999999  9.5522020300000001  9.2549044299999998
  1.9943235800000001  1.3803841600000000  5.9907422199999996
  6.2939456800000002  1.2196982199999999  5.7592694399999997
 10.3076526600000005  1.2341790500000001  5.9335893899999999
 -0.0136023500000000  4.7384320300000002  5.9170782700000002
  4.0524552700000003  4.7890877100000004  6.0731196299999999
  8.1576989399999995  4.6875877199999998  5.8415258200000002
 -2.1168505099999999  8.3515690300000003  5.9258373200000003
  1.8694561199999999  8.4523305400000002  5.8020971200000000
  6.1147197599999998  8.3432666900000001  5.8384461099999996
  2.1113723700000002  1.1424948500000001 12.5959537899999994
  6.0929969200000000  1.2447390100000000 12.5946202899999999
 10.3189036499999993  1.1838614800000000 12.6114362799999995
 -0.2102514400000000  4.8445435899999998 12.6700313999999992
  4.1746629700000000  4.7992363400000002 12.5822352700000000
  8.2594867399999998  4.7787270199999998 12.6255692600000007
 -1.9736734499999999  8.2958731799999992 12.5307642000000001
  1.9130653900000001  8.4023907999999992 12.6482578300000004
  6.1595535600000000  8.2362441200000003 12.7938879300000004
