Cd S 
 1.0000000000000000
    12.3977854500000007    0.0000000000000000    0.0000000000000000
    -6.1988927199999999   10.7367971499999992    0.0000000000000000
     0.0000000000000000    0.0000000000000000   13.4479464199999992
 Cd  S  
  36  36
Cartesian
 -0.0648471700000000  2.3540081000000002 13.4361884800000002
  4.1664232099999996  2.4741531800000001 13.2505073000000007
  8.2701224900000003  2.3894071000000001  0.0024838400000000
 -2.0061241600000002  5.9444428800000004 13.3924221400000008
  2.0643011400000000  5.9695891000000003  0.0009577600000000
  6.2336879200000004  5.9602568900000001 13.3370572099999993
 -4.0579841200000004  9.5204406499999994 13.3959511500000001
  0.0276592800000000  9.5522175899999997 13.4391540200000001
  4.0390161300000003  9.3601653900000006 13.4109870299999994
  0.0048680500000000  2.3450606899999999  6.7570869000000000
  4.2298313800000003  2.6014390900000000  6.7803562800000003
  8.4248744999999996  2.4845312599999998  6.7966011300000000
 -1.9897133300000001  5.8338053399999996  6.8119210299999997
  2.2156246099999999  5.9516722900000003  6.6928643399999999
  6.2615873400000002  5.9074671800000003  6.8188082600000000
 -4.1800571099999999  9.6944251799999996  6.7680666100000000
  0.0002001700000000  9.4781931799999999  6.6420717199999997
  4.1079806699999999  9.3713438999999994  6.6687611899999997
  2.0887942000000002  1.2069434500000000  3.3901858699999998
  6.2642715200000003  1.0435717000000000  3.4918796500000000
 10.3091111299999998  1.1832980099999999  3.3823878100000000
 -0.0224041000000000  4.8138849800000001  3.3634114099999999
  4.1609856699999996  4.7865719699999998  3.3350197100000001
  8.2893200900000004  4.9826794599999999  3.3957257500000000
 -1.9859194800000000  8.4435621199999993  3.2724808400000001
  1.9352989000000000  8.2987926200000004  3.4554059900000000
  6.0530619200000002  8.2842558600000000  3.3077795499999998
  2.1299926700000000  1.0697806500000000 10.0732317400000007
  6.1710862899999999  1.1419031500000001 10.1157685300000004
 10.1777557900000009  1.1438221399999999  9.9963903100000007
  0.0126595700000000  4.7947975300000003 10.1347211300000009
  4.1321525100000001  4.8915028999999999 10.0363348800000001
  8.2282769899999995  4.8020375700000004  9.9443762000000007
 -1.8846905700000001  8.4763168699999998 10.1178688300000008
  2.1754539799999999  8.5371910700000004 10.0065730899999998
  6.1673763199999998  8.3697175399999999 10.1059839399999998
 -0.0566958200000000  2.4414330000000000  2.5878539599999999
  4.1289024899999998  2.4052264800000001  2.5336801100000002
  8.3583409199999998  2.3429732400000001  2.5521411899999999
 -1.9253499199999999  5.8309593399999997  2.5014144599999999
  1.9905303500000000  5.9364312999999997  2.5667997200000001
  6.3420070600000003  5.9533268300000000  2.3486630000000002
 -3.9523446299999998  9.6124918299999997  2.5414652599999998
  0.0077179400000000  9.5576164899999991  2.5309418400000001
  4.0580052599999998  9.5047905799999999  2.3953847900000000
 -0.0379669800000000  2.3376328700000002  9.1230091200000007
  4.1567156799999996  2.3949436400000002  9.4428810300000006
  8.2488253300000007  2.3879550599999999  9.2600108799999994
 -2.1812143000000002  6.1841080599999998  9.2504456299999998
  2.1297739700000000  5.9734257900000003  9.2081786000000001
  6.3533612000000002  5.9828878100000003  9.1737409599999999
 -4.2391250600000001  9.5923232899999995  9.2624752200000007
 -0.1216426000000000  9.5842567299999999  9.2363230000000005
  4.0426780700000000  9.4517114000000007  9.4523396500000008
  2.1743556599999998  1.1098727100000001  5.8868858800000003
  6.0862207799999997  1.1814891800000000  5.9116323900000003
 10.3239780600000000  1.2853038100000000  5.8494083400000001
 -0.1128535700000000  4.8529004599999999  5.8812919399999997
  4.2823444300000002  4.7498178700000002  5.9531088099999998
  8.2053642700000005  4.7731392699999997  5.9726461300000002
 -2.0817047099999999  8.3713609200000008  5.9091104999999997
  2.1555418999999998  8.3146887700000001  5.9097313900000001
  6.1423526900000001  8.2918438699999992  5.9291269599999996
  2.0487808500000000  1.2162045800000001 12.6738269500000005
  6.1851589499999999  1.1832987600000000 12.6129020999999995
 10.3360755700000002  1.1774842500000000 12.6078074800000000
  0.0010315000000000  4.7654593399999996 12.6162943500000004
  4.1711343100000002  4.6803722700000003 12.7775639999999999
  8.2566676700000006  4.6654077500000000 12.6683177300000001
 -2.1675040200000000  8.2217809000000006 12.4492568699999993
  2.0782264600000002  8.3756426400000006 12.6271721200000009
  6.2504165000000000  8.3405363200000000 12.3943127299999993
