Cd S 
 1.0000000000000000
    12.3977854500000007    0.0000000000000000    0.0000000000000000
    -6.1988927199999999   10.7367971499999992    0.0000000000000000
     0.0000000000000000    0.0000000000000000   13.4479464199999992
 Cd  S  
  36  36
Cartesian
 -0.0102582400000000  2.3044393099999998 13.3707667699999995
  4.1378766899999997  2.4032984800000001 13.4461351199999992
  8.2640953699999997  2.3823243600000001 13.4115078600000004
 -2.2777762500000001  5.8730101100000001  0.0441540500000000
  2.0558797599999998  5.9907404900000003  0.0179484400000000
  6.1588566199999999  5.8086155300000000  0.0613182000000000
 -4.1674578599999998  9.6141489399999998 13.4111110199999999
  0.0085657000000000  9.5119909000000007  0.0389689200000000
  4.1949357000000003  9.4841252600000008 13.3178412999999995
  0.0142308000000000  2.3856476099999999  6.7455092900000002
  4.1449388400000000  2.2061332999999999  6.7623449100000004
  8.2706650199999991  2.3837161700000000  6.7187341600000003
 -2.2112160099999998  5.9543608900000002  6.6560708999999996
  2.0858903999999998  5.9758817300000002  6.7314945100000001
  6.2138477400000003  5.9708367200000003  6.7095677699999996
 -4.2728709000000000  9.5250260099999995  6.7311187800000001
  0.0211155400000000  9.3716007200000000  6.7030596400000002
  4.1744039800000001  9.6071915000000008  6.6589561499999999
  1.8874081700000001  1.2531441000000001  3.3285914499999998
  6.1743218000000004  1.0296146100000001  3.3188780000000002
 10.2054719100000000  1.3171170500000000  3.2357840800000002
 -0.0026972000000000  4.7860698099999999  3.3650099700000000
  4.1667865900000001  4.9935890100000000  3.2683704699999998
  8.1979910000000000  4.8469703199999996  3.4558602600000001
 -2.1715827700000001  8.4445623600000008  3.3343319800000000
  2.0577590799999999  8.3952856100000002  3.3560553899999999
  6.3475402499999998  8.3451462700000008  3.3726728800000001
  2.1234184300000001  1.1700098299999999 10.1407811799999994
  6.0808975500000004  1.2574142300000000  9.9517541499999993
 10.1366509300000001  1.1740262500000000 10.1504774100000006
  0.0427829000000000  4.6362364100000004 10.1526130800000001
  4.1312140599999996  4.7669351200000003 10.0311426200000007
  8.2366511399999993  4.6681420899999999 10.0925261800000001
 -1.9656939200000001  8.3875294599999997 10.1956326599999993
  2.2023078400000000  8.1824213100000005 10.1440351799999995
  6.1987965200000001  8.3504273799999993 10.0876382499999995
  0.0277884000000000  2.2567298099999999  2.6460890799999999
  4.2533333000000004  2.3315144000000001  2.5966704300000001
  8.3088192000000003  2.5944752000000002  2.5676055199999999
 -2.0605399000000002  6.0173740799999997  2.5521362100000000
  2.1448459000000000  6.0112748299999996  2.3811794599999998
  6.0521906000000003  6.0056287700000004  2.5586477099999998
 -4.0028122300000000  9.6493882899999992  2.7169214300000002
  0.0216715800000000  9.5037973200000003  2.4736199700000001
  4.1136727500000001  9.5302291700000001  2.5082012300000001
 -0.1421718500000000  2.4447730100000000  9.3420512900000006
  4.0547910700000003  2.5409068499999998  9.2874729299999998
  8.1432614700000006  2.3592683700000001  9.0488102099999992
 -2.0479030800000002  5.9790263200000000  9.2754316400000008
  1.9347551300000001  5.9306571600000000  9.2595929199999993
  6.1916338900000003  5.7723741100000003  9.1456829000000006
 -4.1554297800000004  9.5960215800000004  9.2832415400000006
  0.0042646600000000  9.5486267799999993  9.2604252099999993
  4.0649393399999996  9.5209007200000002  9.1932063300000006
  2.0833442000000000  1.2623213799999999  5.8429435099999996
  6.3059492800000001  1.1646185600000001  5.6784082900000001
 10.3434040899999999  1.1927628200000000  5.8800777200000001
  0.0469225200000000  4.7495205699999996  5.9939136499999996
  4.0918516499999997  4.6774019300000003  5.6749380399999998
  8.3292222999999996  4.7062119800000000  5.8640277400000000
 -2.1214730300000002  8.3611726599999994  5.8891888400000001
  2.1373846599999999  8.3358143899999995  5.8293961799999998
  6.1074734399999997  8.2852569599999999  5.9508264300000002
  2.0712296399999999  1.2121254500000000 12.6475519500000004
  6.1696308499999999  1.2889035400000000 12.5865473600000009
 10.3223618899999998  1.1732361300000000 12.6751406800000002
  0.0367586300000000  4.7493607000000004 12.6118295000000007
  4.1340330700000001  4.7935743999999998 12.6348634099999995
  8.3337954700000001  4.7369969500000000 12.5237712699999992
 -2.0566798400000001  8.3955059300000006 12.6401437399999992
  2.0855332199999999  8.4583818999999991 12.5450768499999992
  6.2024871600000004  8.3814119500000004 12.5949862100000001
