Cd S                                    
   1.00000000000000     
     6.2532571492664166  -10.8309590953227506    0.0000000000000000
     6.2532571492664166   10.8309590953227506    0.0000000000000000
     0.0000000000000000    0.0000000000000000   13.5592348200000004
   Cd   S 
    36    36
Direct
  0.2222222222222214  0.1111111111111143  0.2501121849999990
  0.2222222222222214  0.7777777777777786  0.7501121849999990
  0.1111111111111143  0.8888888888888857  0.5001121849999990
  0.5555555555555571  0.7777777777777786  0.2501121849999990
  0.4444444444444429  0.8888888888888857  0.5001121849999990
  0.5555555555555571  0.1111111111111143  0.2501121849999990
  0.4444444444444429  0.2222222222222214  0.0001121849999990
  0.8888888888888857  0.4444444444444429  0.7501121849999990
  0.7777777777777786  0.5555555555555571  0.0001121849999990
  0.5555555555555571  0.1111111111111143  0.7501121849999990
  0.4444444444444429  0.2222222222222214  0.5001121849999990
  0.5555555555555571  0.4444444444444429  0.2501121849999990
  0.4444444444444429  0.5555555555555571  0.0001121849999990
  0.7777777777777786  0.2222222222222214  0.5001121849999990
  0.8888888888888857  0.1111111111111143  0.7501121849999990
  0.8888888888888857  0.4444444444444429  0.2501121849999990
  0.5555555555555571  0.4444444444444429  0.7501121849999990
  0.7777777777777786  0.5555555555555571  0.5001121849999990
  0.2222222222222214  0.7777777777777786  0.2501121849999990
  0.1111111111111143  0.2222222222222214  0.0001121849999990
  0.7777777777777786  0.8888888888888857  0.5001121849999990
  0.8888888888888857  0.7777777777777786  0.7501121849999990
  0.2222222222222214  0.1111111111111143  0.7501121849999990
  0.1111111111111143  0.2222222222222214  0.5001121849999990
  0.5555555555555571  0.7777777777777786  0.7501121849999990
  0.1111111111111143  0.8888888888888857  0.0001121849999990
  0.8888888888888857  0.1111111111111143  0.2501121849999990
  0.1111111111111143  0.5555555555555571  0.0001121849999990
  0.7777777777777786  0.8888888888888857  0.0001121849999990
  0.8888888888888857  0.7777777777777786  0.2501121849999990
  0.2222222222222214  0.4444444444444429  0.7501121849999990
  0.1111111111111143  0.5555555555555571  0.5001121849999990
  0.7777777777777786  0.2222222222222214  0.0001121849999990
  0.4444444444444429  0.8888888888888857  0.0001121849999990
  0.2222222222222214  0.4444444444444429  0.2501121849999990
  0.4444444444444429  0.5555555555555571  0.5001121849999990
  0.8888888888888857  0.1111111111111143  0.4383878149999987
  0.7777777777777786  0.2222222222222214  0.1883878149999987
  0.8888888888888857  0.4444444444444429  0.4383878149999987
  0.7777777777777786  0.2222222222222214  0.6883878149999987
  0.7777777777777786  0.5555555555555571  0.1883878149999987
  0.8888888888888857  0.4444444444444429  0.9383878149999987
  0.7777777777777786  0.5555555555555571  0.6883878149999987
  0.8888888888888857  0.7777777777777786  0.4383878149999987
  0.7777777777777786  0.8888888888888857  0.1883878149999987
  0.8888888888888857  0.1111111111111143  0.9383878149999987
  0.4444444444444429  0.8888888888888857  0.6883878149999987
  0.4444444444444429  0.5555555555555571  0.1883878149999987
  0.4444444444444429  0.8888888888888857  0.1883878149999987
  0.2222222222222214  0.1111111111111143  0.4383878149999987
  0.1111111111111143  0.2222222222222214  0.1883878149999987
  0.2222222222222214  0.1111111111111143  0.9383878149999987
  0.1111111111111143  0.2222222222222214  0.6883878149999987
  0.2222222222222214  0.4444444444444429  0.4383878149999987
  0.1111111111111143  0.5555555555555571  0.1883878149999987
  0.2222222222222214  0.4444444444444429  0.9383878149999987
  0.1111111111111143  0.5555555555555571  0.6883878149999987
  0.2222222222222214  0.7777777777777786  0.4383878149999987
  0.1111111111111143  0.8888888888888857  0.1883878149999987
  0.2222222222222214  0.7777777777777786  0.9383878149999987
  0.1111111111111143  0.8888888888888857  0.6883878149999987
  0.5555555555555571  0.1111111111111143  0.4383878149999987
  0.4444444444444429  0.2222222222222214  0.1883878149999987
  0.5555555555555571  0.1111111111111143  0.9383878149999987
  0.4444444444444429  0.2222222222222214  0.6883878149999987
  0.5555555555555571  0.4444444444444429  0.4383878149999987
  0.8888888888888857  0.7777777777777786  0.9383878149999987
  0.5555555555555571  0.4444444444444429  0.9383878149999987
  0.4444444444444429  0.5555555555555571  0.6883878149999987
  0.5555555555555571  0.7777777777777786  0.4383878149999987
  0.5555555555555571  0.7777777777777786  0.9383878149999987
  0.7777777777777786  0.8888888888888857  0.6883878149999987
 
  0.00000000E+00  0.00000000E+00  0.00000000E+00
  0.00000000E+00  0.00000000E+00  0.00000000E+00
  0.00000000E+00  0.00000000E+00  0.00000000E+00
  0.00000000E+00  0.00000000E+00  0.00000000E+00
  0.00000000E+00  0.00000000E+00  0.00000000E+00
  0.00000000E+00  0.00000000E+00  0.00000000E+00
  0.00000000E+00  0.00000000E+00  0.00000000E+00
  0.00000000E+00  0.00000000E+00  0.00000000E+00
  0.00000000E+00  0.00000000E+00  0.00000000E+00
  0.00000000E+00  0.00000000E+00  0.00000000E+00
  0.00000000E+00  0.00000000E+00  0.00000000E+00
  0.00000000E+00  0.00000000E+00  0.00000000E+00
  0.00000000E+00  0.00000000E+00  0.00000000E+00
  0.00000000E+00  0.00000000E+00  0.00000000E+00
  0.00000000E+00  0.00000000E+00  0.00000000E+00
  0.00000000E+00  0.00000000E+00  0.00000000E+00
  0.00000000E+00  0.00000000E+00  0.00000000E+00
  0.00000000E+00  0.00000000E+00  0.00000000E+00
  0.00000000E+00  0.00000000E+00  0.00000000E+00
  0.00000000E+00  0.00000000E+00  0.00000000E+00
  0.00000000E+00  0.00000000E+00  0.00000000E+00
  0.00000000E+00  0.00000000E+00  0.00000000E+00
  0.00000000E+00  0.00000000E+00  0.00000000E+00
  0.00000000E+00  0.00000000E+00  0.00000000E+00
  0.00000000E+00  0.00000000E+00  0.00000000E+00
  0.00000000E+00  0.00000000E+00  0.00000000E+00
  0.00000000E+00  0.00000000E+00  0.00000000E+00
  0.00000000E+00  0.00000000E+00  0.00000000E+00
  0.00000000E+00  0.00000000E+00  0.00000000E+00
  0.00000000E+00  0.00000000E+00  0.00000000E+00
  0.00000000E+00  0.00000000E+00  0.00000000E+00
  0.00000000E+00  0.00000000E+00  0.00000000E+00
  0.00000000E+00  0.00000000E+00  0.00000000E+00
  0.00000000E+00  0.00000000E+00  0.00000000E+00
  0.00000000E+00  0.00000000E+00  0.00000000E+00
  0.00000000E+00  0.00000000E+00  0.00000000E+00
  0.00000000E+00  0.00000000E+00  0.00000000E+00
  0.00000000E+00  0.00000000E+00  0.00000000E+00
  0.00000000E+00  0.00000000E+00  0.00000000E+00
  0.00000000E+00  0.00000000E+00  0.00000000E+00
  0.00000000E+00  0.00000000E+00  0.00000000E+00
  0.00000000E+00  0.00000000E+00  0.00000000E+00
  0.00000000E+00  0.00000000E+00  0.00000000E+00
  0.00000000E+00  0.00000000E+00  0.00000000E+00
  0.00000000E+00  0.00000000E+00  0.00000000E+00
  0.00000000E+00  0.00000000E+00  0.00000000E+00
  0.00000000E+00  0.00000000E+00  0.00000000E+00
  0.00000000E+00  0.00000000E+00  0.00000000E+00
  0.00000000E+00  0.00000000E+00  0.00000000E+00
  0.00000000E+00  0.00000000E+00  0.00000000E+00
  0.00000000E+00  0.00000000E+00  0.00000000E+00
  0.00000000E+00  0.00000000E+00  0.00000000E+00
  0.00000000E+00  0.00000000E+00  0.00000000E+00
  0.00000000E+00  0.00000000E+00  0.00000000E+00
  0.00000000E+00  0.00000000E+00  0.00000000E+00
  0.00000000E+00  0.00000000E+00  0.00000000E+00
  0.00000000E+00  0.00000000E+00  0.00000000E+00
  0.00000000E+00  0.00000000E+00  0.00000000E+00
  0.00000000E+00  0.00000000E+00  0.00000000E+00
  0.00000000E+00  0.00000000E+00  0.00000000E+00
  0.00000000E+00  0.00000000E+00  0.00000000E+00
  0.00000000E+00  0.00000000E+00  0.00000000E+00
  0.00000000E+00  0.00000000E+00  0.00000000E+00
  0.00000000E+00  0.00000000E+00  0.00000000E+00
  0.00000000E+00  0.00000000E+00  0.00000000E+00
  0.00000000E+00  0.00000000E+00  0.00000000E+00
  0.00000000E+00  0.00000000E+00  0.00000000E+00
  0.00000000E+00  0.00000000E+00  0.00000000E+00
  0.00000000E+00  0.00000000E+00  0.00000000E+00
  0.00000000E+00  0.00000000E+00  0.00000000E+00
  0.00000000E+00  0.00000000E+00  0.00000000E+00
  0.00000000E+00  0.00000000E+00  0.00000000E+00
