Cd S 
 1.0000000000000000
    12.3977854500000007    0.0000000000000000    0.0000000000000000
    -6.1988927199999999   10.7367971499999992    0.0000000000000000
     0.0000000000000000    0.0000000000000000   13.4479464199999992
 Cd  S  
  36  36
Cartesian
 -0.0673358400000000  2.1664973399999998  0.0172651500000000
  4.1264866600000003  2.5491611900000000 13.4239613400000000
  8.2794385599999991  2.3816845500000001 13.4272981700000003
 -2.0980043899999998  5.9718565000000003 13.4405833999999995
  2.0404096799999998  6.1459834100000004  0.1234286100000000
  6.0730671699999998  6.0315342000000003 13.3432721799999996
 -4.2112574399999998  9.5066719899999992 13.4025539499999997
 -0.0480284000000000  9.5077125999999996  0.0090406500000000
  4.3531124200000004  9.5742049399999996  0.0497194800000000
  0.0238048000000000  2.4206312099999998  6.7375116600000000
  4.1840302999999999  2.3350057899999999  6.7371129300000003
  8.2500569200000005  2.3810506500000002  6.7299580800000003
 -2.0787663799999998  5.9670876499999999  6.5407341800000003
  2.0733723500000001  5.9002424900000001  6.7015440499999999
  6.1941063800000000  5.9501997400000004  6.6875555000000002
 -4.0928591499999998  9.6374933200000008  6.8026373800000002
 -0.0033063000000000  9.5473216099999991  6.7266010700000001
  4.0684719100000004  9.5693869100000004  6.6675527499999996
  2.1035678400000002  1.2097175099999999  3.1820629000000000
  6.1707762800000001  1.3186865500000000  3.3072324800000001
 10.3865381499999998  1.1466926200000001  3.4436142900000002
  0.0027612400000000  4.7656936200000004  3.3486354800000000
  4.1268558000000004  4.8283228600000001  3.4143403999999999
  8.2651512300000007  4.7738588499999999  3.3617973900000000
 -2.1183948400000001  8.3487861500000005  3.3396437799999998
  1.9766150199999999  8.3106073899999995  3.5691955200000001
  6.1730086899999996  8.3465420600000009  3.4202982500000001
  2.0698427000000001  1.1905951699999999 10.0872512200000006
  6.0908852600000003  1.0192990200000001 10.1133505899999996
 10.3836655300000000  1.2974772999999999 10.0526317699999996
  0.0080647000000000  4.7430796700000002 10.1520098099999991
  4.1209943200000003  4.9832394899999999 10.1618758899999992
  8.2749075399999992  4.6590657400000000 10.0638954999999992
 -2.2487275499999999  8.2650704899999994 10.1399771199999993
  2.2465628500000001  8.2968177999999995 10.1233133700000000
  6.1070731800000004  8.2419708099999998  9.9284710500000006
 -0.0098351600000000  2.4126154400000002  2.5370819099999999
  4.0079945099999996  2.3212607599999999  2.6082653800000002
  8.2116913599999997  2.2225216300000001  2.4233321800000001
 -2.1555751200000000  5.9503472600000000  2.5544290799999998
  2.1412607700000001  5.9832480300000004  2.5212018999999999
  6.1548005000000003  5.9017315799999999  2.5922367799999999
 -4.1593578899999999  9.4822261300000008  2.5508254400000001
  0.0435422700000000  9.6520209599999998  2.3828059900000000
  4.1671791699999998  9.4454914700000003  2.5650263400000002
  0.0544815100000000  2.5966848300000001  9.2040325999999997
  4.1665168799999996  2.4443863700000001  9.2580373999999992
  8.1610917799999996  2.3237999000000000  9.2634800500000001
 -2.0901362600000000  5.9881006299999999  9.3149254399999997
  2.1168446300000001  5.9415191399999996  9.2613020200000005
  6.0918979200000001  5.8602565100000001  9.3823710600000005
 -4.1302363000000000  9.6363682100000005  9.2887351599999999
 -0.0411657900000000  9.5719857600000005  9.1932207199999993
  4.2311828000000000  9.7305872499999992  9.2183966200000000
  2.0696787400000001  1.1941128700000001  5.9073346899999999
  6.2732799999999997  1.2681346000000000  5.8650193899999996
 10.2756455399999993  1.2593742299999999  5.8696598699999996
 -0.0594218400000000  4.8358156399999999  5.9523300399999997
  4.1196321700000000  4.7354224000000000  5.8941172499999999
  8.3212944100000001  4.8016481500000001  5.8997848800000003
 -1.9766553000000000  8.2793845699999995  5.9714340600000000
  2.1443760200000002  8.3306242200000007  5.9398779199999998
  6.1910660100000001  8.3467893300000000  5.8523742800000003
  2.1409805700000000  1.2176669300000000 12.7540040099999992
  6.3527750899999997  1.0861126000000001 12.6923974899999994
 10.3207473200000006  1.2168908700000001 12.5715395799999996
 -0.0016236100000000  4.7719359900000002 12.6187390500000003
  4.0569681900000001  4.5652600600000000 12.6055359899999999
  8.2580022300000007  4.7859260399999997 12.6075170100000005
 -2.0444395700000002  8.3014939999999999 12.5990885099999996
  2.1449534500000000  8.2085651899999998 12.4970336599999996
  6.2601434300000003  8.5049821800000007 12.6795345299999997
