Cd S 
 1.0000000000000000
    12.3977854500000007    0.0000000000000000    0.0000000000000000
    -6.1988927199999999   10.7367971499999992    0.0000000000000000
     0.0000000000000000    0.0000000000000000   13.4479464199999992
 Cd  S  
  36  36
Cartesian
  0.0118335600000000  2.3998276999999999  0.0001453700000000
  4.2996879400000001  2.5416716300000002  0.0544658000000000
  8.4686635399999997  2.4158905900000001  0.1372262100000000
 -2.0643770699999999  5.9609228999999999 13.4148129699999998
  2.0945816800000001  5.8963013399999999 13.4448496300000002
  6.2536184700000002  5.8746128999999998 13.4203356300000003
 -4.2102803700000004  9.5011970899999998 13.3833824299999993
  0.0236688600000000  9.6122172900000002  0.2360723800000000
  4.1389969600000001  9.5476603600000001  0.0012760800000000
  0.0823449100000000  2.3660339499999998  6.7709497100000000
  4.2092915900000003  2.2523435100000002  6.7892251999999997
  8.4149828000000007  2.2377977300000000  6.6685573199999997
 -2.0186366800000002  5.9322150599999999  6.7456015400000000
  2.0655774899999999  5.9630570499999997  6.7235430100000002
  6.1126510700000001  5.9268407600000002  6.5753771700000003
 -4.1459133000000001  9.5351977300000001  6.6400644800000004
 -0.0005749400000000  9.5606444800000006  6.7174229800000003
  4.0453688799999998  9.5205563899999994  6.6695141400000004
  2.0977203599999998  1.2009033499999999  3.3432897900000000
  6.2388888500000004  1.0886173900000000  3.2800047000000001
 10.2044149300000004  1.1655011300000000  3.4420067300000001
  0.0224951000000000  4.7981489200000000  3.3102734699999998
  4.1447931100000002  4.7922703100000001  3.3779412500000001
  8.2619699600000001  4.8094925599999998  3.3489416900000002
 -2.1725740299999998  8.1588032500000001  3.4546364999999999
  2.1676308600000000  8.2027694699999998  3.3972110799999999
  6.1929344200000003  8.3730806300000005  3.3560674900000000
  2.0408927600000002  1.2302137399999999 10.1593258899999999
  6.1731017399999999  1.2530076299999999  9.9406301399999997
 10.3301270499999998  1.2243605700000000 10.1646457699999999
  0.1522346400000000  4.9230372999999998  9.9629151399999998
  4.2155977299999998  4.8021808000000004 10.0930043900000008
  8.2105914900000005  4.6808593900000002 10.0087406300000001
 -1.8849009000000001  8.4620327399999997 10.1201413999999996
  1.9375612499999999  8.2455711800000007 10.0686213799999997
  6.1124373299999997  8.4452789300000006 10.0707969899999998
  0.0759917300000000  2.6035270700000002  2.4669277400000000
  4.2039828600000000  2.3959133900000000  2.5331791799999999
  8.4286754800000008  2.3228944700000000  2.6881504899999999
 -1.8987134000000001  6.0702075999999998  2.4177698400000001
  2.0411582600000000  5.9820840500000001  2.5313532200000002
  6.1231010399999999  5.9926949100000000  2.3920850699999998
 -4.1317862700000001  9.5036324099999998  2.5418403299999999
 -0.0011978100000000  9.5396888299999993  2.5025376300000000
  4.2805891500000000  9.4154608599999996  2.5947600099999999
 -0.0011549100000000  2.3884846000000000  9.2568734799999994
  4.1359072399999999  2.4005907600000000  9.1175421300000004
  8.1042479899999993  2.2250420900000001  9.2342947800000008
 -2.2047672399999998  6.0395179700000003  9.4511782800000006
  2.0611907899999999  5.9318164099999997  9.2726668799999992
  6.1471230500000003  5.9952581000000000  9.1843126599999998
 -4.0738117500000000  9.4149301399999992  9.4123324099999994
 -0.0698408100000000  9.4762456299999993  9.0950855399999995
  4.1375143699999999  9.6593673899999999  9.4223908000000005
  2.0140511200000000  1.2494138100000001  6.0150312300000000
  6.1784341500000002  1.3032277100000000  6.0618758100000001
 10.4331228300000003  1.2169552900000000  5.8434877500000004
  0.0150238200000000  4.7859201400000000  5.8863600700000003
  4.2572775900000002  4.5873780699999998  5.9877832700000004
  8.2704631800000001  4.6464452800000000  5.8449964699999999
 -2.1450451799999999  8.2942031800000002  5.9200943800000001
  2.0598721599999998  8.3482556500000005  5.9466240800000003
  6.0168584000000003  8.2123401499999993  5.9491712600000000
  2.0745393499999998  1.2012323300000001 12.6299859699999999
  6.1971849299999997  1.2062149499999999 12.6387974700000001
 10.3407967700000007  1.2713294399999999 12.6765766499999994
 -0.0738128200000000  4.6977348499999998 12.6052464600000000
  4.2240902100000000  4.6888992199999997 12.6601747299999996
  8.1813177800000005  4.5984109899999996 12.6080818200000007
 -1.9996600099999999  8.2360961699999997 12.7381798100000001
  2.2782411699999998  8.2427702699999994 12.6664377100000003
  6.3499218700000002  8.2613490100000000 12.7403287899999995
