Cd S 
 1.0000000000000000
    12.3977854500000007    0.0000000000000000    0.0000000000000000
    -6.1988927199999999   10.7367971499999992    0.0000000000000000
     0.0000000000000000    0.0000000000000000   13.4479464199999992
 Cd  S  
  36  36
Cartesian
  0.0292744600000000  2.2940834500000000 13.3459631099999996
  4.0888764300000000  2.3939791499999998  0.1099879300000000
  8.1214879199999999  2.3525917000000001 13.4122999499999995
 -2.0823143700000002  5.7776254800000002 13.4409120699999995
  2.0465550800000001  5.8894661800000003 13.4385714499999995
  6.2115764100000002  5.9621771700000004  0.0054129300000000
 -4.1094700099999999  9.4741023500000008 13.4336659100000002
 -0.0788722300000000  9.4148345800000008  0.0408855200000000
  4.0929531299999997  9.5296608700000007 13.3855771299999997
  0.1431498500000000  2.3404872499999998  6.8602826700000001
  4.2442537199999997  2.3312641200000002  6.6926642400000000
  8.2087004500000003  2.3910301800000000  6.7328795200000000
 -2.0117668200000001  5.9763551100000001  6.7194892599999996
  2.0537976100000002  5.9586626999999996  6.7445074199999997
  6.1983109599999997  5.7617891300000004  6.6133399099999997
 -4.1717971499999997  9.4895573199999994  6.8485716600000002
  0.1943571700000000  9.5548882699999993  6.6727768799999998
  4.1901810900000003  9.6525492100000001  6.8432250300000002
  1.9764752299999999  1.3361657400000000  3.5319184899999998
  6.2156120100000001  1.1694261800000001  3.3419284500000002
 10.2691153800000006  1.2000255099999999  3.3988502500000002
  0.0300924000000000  4.7719454399999996  3.2822554799999999
  4.1968908899999997  4.5482285999999998  3.3205194599999999
  8.2950890899999994  4.7189170499999999  3.4330479700000001
 -2.0448341299999999  8.1852049299999994  3.2571906600000000
  2.0579501900000001  8.1751079400000002  3.2914440599999999
  6.2281620400000000  8.1966577600000008  3.4060427500000001
  1.9166089900000001  1.2619496699999999 10.0888696800000002
  6.2282484499999997  1.0917497400000000 10.0854730000000004
 10.4556938699999993  1.2924040600000000 10.1202709100000003
  0.0842401600000000  4.7369064400000003 10.1170942299999993
  4.0801292900000004  4.9641987500000004 10.0447011100000001
  8.2658306300000000  4.8055238100000004  9.9982626600000000
 -2.0210154500000002  8.2244360099999998 10.0211899300000002
  2.2052871500000002  8.2737794299999994  9.9617197500000003
  6.2141437399999999  8.3301580299999998 10.0676000099999996
  0.1171799600000000  2.3376149399999999  2.5025338600000002
  4.1681782399999996  2.3997048699999999  2.5363042099999999
  8.3331781199999995  2.3930318399999999  2.4252167800000000
 -2.1571625299999999  5.8265938600000000  2.4261816700000001
  2.0723835700000000  5.9440045000000001  2.5314109100000000
  6.1437488699999996  6.0514545000000002  2.4456502599999999
 -4.0732609100000001  9.5769378900000000  2.5008031100000001
  0.0125628700000000  9.5348710099999998  2.5211619600000001
  4.1313140500000003  9.5423883800000002  2.5122362900000001
  0.0964121900000000  2.3784499800000001  9.2559296999999994
  4.1252019999999998  2.4314704400000000  9.2128828200000008
  8.2688518400000000  2.4139443300000001  9.4822427699999992
 -2.2181170500000000  5.9704588899999997  9.1361462899999992
  2.0135239000000000  6.0285268199999997  9.0949499800000009
  6.2384885299999997  5.8997244400000000  9.2776254100000006
 -4.1101598199999998  9.5237832299999994  9.0875653100000005
  0.0193323100000000  9.6123668500000008  9.2813896200000006
  4.1403031900000000  9.5668637699999994  9.2514402400000009
  2.2203790900000002  1.0864389999999999  5.8681302999999998
  6.2855177299999996  1.3179247800000000  5.9744451900000000
 10.3772272300000008  1.3500362800000001  5.7835283300000002
 -0.0652821500000000  4.7743135499999996  5.9216322799999999
  4.0325492000000001  4.5968454599999999  6.0334101300000000
  8.3678834900000005  4.6572967399999996  5.8202232000000000
 -2.1423942299999998  8.2860134700000003  5.9625978200000000
  2.0435628700000001  8.4215624200000008  5.9521713600000004
  6.0847122200000001  8.5116259999999997  5.8370803400000000
  2.2816272500000001  1.2952181700000001 12.6051379299999997
  6.2273271100000001  1.2701516100000001 12.6228204999999996
 10.3649255900000004  1.1877116900000000 12.6557803399999997
 -0.0460653300000000  4.6847409600000001 12.7349709999999998
  4.0812010799999996  4.8555157299999996 12.5484865800000005
  8.3062862099999997  4.7236331800000002 12.6213919299999997
 -2.0185009300000001  8.3426962400000004 12.6890024199999996
  1.8886876300000000  8.2124381700000004 12.6874307599999998
  6.1738594300000003  8.3439312999999995 12.6388514000000001
