Cd S 
 1.0000000000000000
    12.3977854500000007    0.0000000000000000    0.0000000000000000
    -6.1988927199999999   10.7367971499999992    0.0000000000000000
     0.0000000000000000    0.0000000000000000   13.4479464199999992
 Cd  S  
  36  36
Cartesian
 -0.0537223300000000  2.4679668499999998 13.4011600699999995
  4.1873879299999999  2.4714866899999999  0.0427194200000000
  8.2024435400000009  2.1829076800000000 13.4100133899999996
 -2.1477919800000000  5.9796697800000000  0.0530941100000000
  2.1021380700000001  6.1947455400000004 13.3977689000000009
  6.2337809599999998  5.9312459600000000  0.0035001000000000
 -3.9789768099999998  9.5454001599999998 13.3675424899999999
 -0.0293236700000000  9.4730749400000001  0.0130285000000000
  4.1534775100000001  9.6393297400000009  0.0831738000000000
  0.1227073300000000  2.2717999799999999  6.8711776599999999
  4.0470321699999996  2.4220210899999999  6.7234970199999999
  8.3581173900000003  2.3934243799999999  6.9072781299999999
 -2.1941508299999999  5.7692832000000003  6.7732958400000003
  2.0694839100000002  5.9669268100000004  6.7199544299999996
  6.3143536800000000  5.8549586600000003  6.9136693999999999
 -4.1583008599999998  9.5934904900000006  6.7789493600000004
  0.0437848300000000  9.5489692799999997  6.7307700700000002
  4.3015986899999996  9.5391479100000005  6.6629027199999999
  2.1322540800000001  1.0524747600000000  3.3762344400000002
  6.0451071199999999  1.1909620400000001  3.2108994599999998
 10.4467166299999992  1.3291694300000001  3.3393663500000001
 -0.0092729200000000  4.8081812700000004  3.5282080599999999
  4.0342971600000004  4.8601280500000001  3.2381694799999998
  8.3899514899999996  4.9309851099999999  3.3231275500000002
 -2.0669185600000000  8.3459929800000001  3.3699366300000002
  2.0857775200000002  8.4977811200000009  3.2209851600000001
  6.2048504800000002  8.3181970199999995  3.3743827899999999
  2.0233579499999998  1.2399981799999999 10.1249798400000000
  6.2381345100000001  1.1999333900000000 10.1414543800000008
 10.3419320999999993  1.1971492300000000 10.0936157299999998
  0.2119605400000000  4.7935018200000004 10.0696014599999994
  4.1377797999999997  4.7824061999999996 10.0963487599999997
  8.2555786500000004  4.7114320999999997 10.1867462599999996
 -2.0711722400000001  8.3158837800000001 10.0720167200000006
  2.0295047700000000  8.4252172299999994 10.0096267200000000
  6.3931527600000004  8.4545163399999996 10.1706896800000006
  0.0068142600000000  2.3782968800000002  2.5241291100000001
  4.1359749900000002  2.3854923600000002  2.5328451300000001
  8.1974334700000000  2.1974526000000001  2.6645469199999998
 -1.9751357100000000  6.0329086099999998  2.6294198099999999
  2.0872937000000000  5.7897499000000003  2.6127785100000001
  6.1182830099999999  5.9920212800000003  2.5365082200000000
 -4.0138369000000003  9.6481283300000005  2.5087691400000001
  0.0495906500000000  9.6639332200000005  2.6378426600000000
  4.0786283000000001  9.7356219500000005  2.6162120400000002
 -0.0566537300000000  2.2694034200000002  9.1668518500000005
  4.1989362200000002  2.4379932599999998  9.2069525500000005
  8.2187972100000000  2.2579986900000000  9.0490993399999997
 -1.9467257499999999  5.8609945600000000  9.1906894099999992
  2.0650311900000000  5.9532634800000004  9.2696856000000007
  6.0499314100000001  5.9428823900000003  9.2161996300000002
 -4.1211808400000001  9.5576002700000000  9.1633852400000002
  0.1298948300000000  9.6404565699999996  9.2112583099999998
  4.2483602999999999  9.4538699299999998  9.3917107899999994
  2.0690039300000000  1.1946675300000000  5.8976645500000000
  6.1919037799999996  1.1820293500000001  5.8729236900000004
 10.4724197199999995  1.1587483300000001  6.0842970300000001
  0.0094217600000000  4.7700363299999999  5.8961454700000004
  4.1158879199999996  4.6820860700000004  5.8431818000000000
  8.2352673000000003  4.7994945600000003  5.8785140000000000
 -2.0737228900000000  8.4500755999999999  5.8042185300000000
  1.9739424299999999  8.1629324099999998  5.8000021999999998
  6.2002010099999998  8.3850588100000003  5.7894774299999998
  2.1024424900000001  1.0975186299999999 12.5760108899999992
  6.3036073999999997  1.0379480800000001 12.7181445199999992
 10.3417265500000006  1.1797987800000000 12.6321898200000007
 -0.0190213600000000  4.8403325099999996 12.6707056799999993
  4.2917933399999999  4.6876598700000001 12.6595951200000005
  8.4430047100000003  4.8759549399999997 12.7093788799999992
 -2.0738487900000000  8.5311361600000009 12.6038640100000006
  2.1865577500000000  8.4744083999999997 12.5401083700000004
  6.2359624199999999  8.3097631599999993 12.5628007000000004
