Cd S 
 1.0000000000000000
    12.3977854500000007    0.0000000000000000    0.0000000000000000
    -6.1988927199999999   10.7367971499999992    0.0000000000000000
     0.0000000000000000    0.0000000000000000   13.4479464199999992
 Cd  S  
  36  36
Cartesian
 -0.0456265800000000  2.3736415100000001 13.4211481599999995
  3.9570862899999999  2.4269036499999999 13.3742752100000004
  8.2740820300000006  2.3337302599999998 13.4451336500000007
 -2.0517531500000001  5.9645768500000003 13.4436499400000002
  2.0858366500000001  5.7468296600000004  0.0921985800000000
  6.2204606000000000  5.8698251499999996 13.3783822099999998
 -4.0694751900000004  9.5707368499999994 13.3796823600000003
 -0.0087268600000000  9.5484244999999994 13.4434261599999996
  4.1499837499999996  9.5383008799999995 13.4073891599999993
 -0.0058231100000000  2.3737473699999998  6.7286147700000001
  4.1460000299999997  2.4311068900000001  6.7300433399999999
  8.2638017300000008  2.3797173599999999  6.7204581900000004
 -2.0510946400000001  5.9117085300000003  6.7990325199999999
  2.1112704000000000  5.8687699300000000  6.6922363300000001
  6.2109335200000002  6.0028693100000003  6.6538303399999998
 -4.1398757000000002  9.5174888899999992  6.8312833800000003
  0.1564769200000000  9.5987917800000009  6.7044037599999999
  4.0877595800000002  9.5147414500000007  6.5511629300000003
  2.0303012699999998  1.2170621300000000  3.3394021199999999
  6.1985892900000001  1.1935409200000000  3.3626645200000000
 10.3107987800000007  1.2436071399999999  3.3555333400000000
  0.0134026300000000  4.7981251900000004  3.4236462500000000
  4.1207203899999998  4.8067897899999998  3.3546086599999998
  8.2480096199999995  4.7835607199999997  3.3636555000000001
 -2.0652140499999998  8.3495108899999995  3.3634198899999999
  2.1134428600000001  8.3510798600000005  3.3477994199999999
  6.2453672500000001  8.2749667000000002  3.3703917099999998
  2.0244720799999998  1.1715205000000000 10.1248917499999997
  6.2803045800000001  1.1820035799999999 10.1040611499999997
 10.3637433399999992  1.2156157700000001 10.1058448900000002
 -0.0229151300000000  4.7450303299999996 10.1011308500000005
  4.1050473600000004  4.7663582299999998 10.0933524200000004
  8.2308979499999992  4.7528073199999996 10.0897658499999991
 -2.1592345100000001  8.2329294599999994 10.1686044399999993
  2.0647373600000001  8.3520943800000005 10.0876823600000005
  6.3410208800000003  8.1545125100000000 10.0941765100000005
 -0.0171131000000000  2.3916987600000001  2.4989330399999998
  4.1100030600000004  2.4804345300000001  2.5360140000000002
  8.4301068600000004  2.4247028199999998  2.4815617900000002
 -2.0593414600000002  5.8961046399999999  2.4963911099999998
  2.0284504000000001  6.0112720299999998  2.5263410300000002
  6.1520173800000002  5.9282612400000003  2.5673539100000000
 -4.1537028300000003  9.6363085099999992  2.6761402599999999
 -0.1696662300000000  9.4628902299999993  2.6173674899999999
  4.2554813999999999  9.6066179399999996  2.4331357400000000
  0.0545566400000000  2.4241685600000000  9.2120600800000005
  3.9322923300000001  2.2540813700000002  9.2019433199999998
  8.3601169599999992  2.5544865400000001  9.2180805899999996
 -2.1935882800000002  5.8274002999999999  9.1711939200000003
  1.9953098800000000  5.9090418400000004  9.4501332399999995
  6.1971249300000002  5.9625027099999999  9.2602541600000006
 -4.2356930400000001  9.5251387500000000  9.3088585300000002
 -0.1276126300000000  9.6626952599999996  9.1195728999999996
  4.0849697000000003  9.5646422199999996  9.0272476400000006
  2.0885274699999998  1.1729227200000001  5.6954783000000004
  6.1796703300000004  1.2176384800000000  5.8548049999999998
 10.2930104399999998  1.3224637600000000  5.9419111100000004
 -0.0031738300000000  4.7984438599999999  5.8727165899999996
  4.0646942399999997  4.8065012899999999  5.9635140299999998
  8.3976814500000003  4.8026551499999997  5.7818088699999999
 -2.0545086800000001  8.3743219100000008  5.9026701399999997
  2.1043038400000000  8.3381916199999999  5.7347678200000001
  6.2758408200000000  8.4162549000000002  5.9133018200000000
  2.1500180000000002  1.0633064699999999 12.6539800699999994
  6.2117946699999997  1.2133913199999999 12.6719840399999999
 10.2139494499999994  1.1395964599999999 12.4278848499999999
  0.0382564100000000  4.7942830299999999 12.6666349900000004
  4.0241535400000004  4.5583166799999999 12.5603094700000000
  8.2658058299999997  4.7243609199999996 12.6562780499999992
 -2.0758516600000001  8.4570247700000003 12.5692370300000000
  2.1262128900000001  8.3034057899999993 12.4677219699999995
  6.1857680600000000  8.1807909300000006 12.5280093899999994
