Cd S 
 1.0000000000000000
    12.3977854500000007    0.0000000000000000    0.0000000000000000
    -6.1988927199999999   10.7367971499999992    0.0000000000000000
     0.0000000000000000    0.0000000000000000   13.4479464199999992
 Cd  S  
  36  36
Cartesian
  0.0355869800000000  2.4550122600000002  0.0514211800000000
  4.2830018200000000  2.3170068399999999  0.0487395300000000
  8.2512176000000004  2.3269064899999998  0.0349395100000000
 -2.1337351199999999  6.0224204800000001 13.3690999000000001
  2.0684746100000000  6.0116627500000002  0.0035323700000000
  6.2252182500000002  5.9700357500000001 13.2959782999999998
 -4.1528336200000000  9.4764028099999997 13.4188872900000007
 -0.0662106200000000  9.5199426700000007  0.0832119900000000
  4.2783344899999998  9.5906961299999995 13.3790438500000004
 -0.1594472400000000  2.2933625800000002  6.8245829499999999
  4.2337417000000004  2.4718653800000001  6.8213242400000000
  8.1913496899999991  2.3981947400000001  6.7640404299999997
 -2.0807520099999999  5.9156487200000001  6.7875805199999997
  1.9896768899999999  5.8697089699999996  6.7900581700000000
  6.1994526099999998  5.9709087600000004  6.7258251299999996
 -4.1157951099999996  9.5897724400000008  6.9036020000000002
 -0.0276828200000000  9.4269876700000008  6.6769823199999996
  3.9862262400000001  9.6292052600000009  6.6333813900000003
  2.0372730400000001  1.0060808400000001  3.4307218800000001
  6.1738984800000001  1.2995582000000001  3.3570054900000001
 10.3295423100000008  1.0816372900000000  3.4692343800000001
 -0.0143068600000000  4.7767236400000002  3.3504939899999999
  4.0989632699999996  4.8101669400000002  3.3302783599999999
  8.2972762499999995  4.8065017200000000  3.2974336399999999
 -1.9096111800000000  8.2892115299999993  3.3460938200000001
  2.1025312600000001  8.3783475599999999  3.3247597299999998
  6.3275770900000001  8.3996589299999993  3.2447254900000000
  2.1120270300000001  1.2345337900000000 10.0191935900000004
  6.2211309400000001  1.0412360100000000  9.9241304600000007
 10.4161123900000003  1.2856376199999999 10.1301823100000004
  0.0082476300000000  4.7598442099999998 10.1048492000000003
  3.9729837899999998  4.8257406600000001 10.0771562499999998
  8.3682342300000006  4.5552602300000000 10.0692785800000006
 -1.9058779600000000  8.1852593700000007 10.0222915900000000
  2.0263677599999999  8.4066382700000002 10.1523469500000001
  6.2231283499999996  8.3420695400000007 10.0932463200000004
 -0.0542514700000000  2.3932621500000000  2.4850060799999998
  3.9899331099999999  2.4746261299999999  2.6956560600000001
  8.2697597300000005  2.5468882100000001  2.6296204500000000
 -2.0515673699999999  5.8375316499999998  2.4366160600000000
  2.0693756200000002  5.9369250800000000  2.4862368300000002
  6.2847175799999997  5.8620585800000002  2.4574559400000000
 -4.1439435400000004  9.6637227800000005  2.5768552800000002
  0.2082265800000000  9.5182560299999999  2.4805346400000001
  4.1295683800000003  9.5418003200000001  2.5293662800000001
 -0.0001372400000000  2.3933950700000000  9.3457754299999998
  4.1558196299999999  2.3701939200000002  9.4417289499999999
  8.1143763700000004  2.4111037000000000  9.1266490800000000
 -2.0722165600000002  5.9471812999999996  9.2547975200000003
  2.0201533100000000  5.7820719100000000  9.2885331699999991
  6.0772027599999996  5.9770592300000001  9.2431592600000005
 -4.1072974200000001  9.5543852499999993  9.1027382299999999
  0.1761207100000000  9.6765500299999996  9.2350637300000002
  3.9248786500000001  9.6294766900000006  9.1734958100000004
  2.0780254299999998  1.1914095499999999  5.9800088799999997
  6.1900837299999996  1.1919150400000000  5.9002214000000004
 10.2125090099999998  1.2520720299999999  5.9475027699999998
 -0.0247044400000000  4.7301797299999997  5.8625620400000003
  4.1249358200000001  4.7521026600000003  5.9125617799999999
  8.2370745200000002  4.8542990399999999  5.9614849999999997
 -2.2241530400000000  8.3798657500000004  5.9025371399999997
  1.9948188700000000  8.2907813600000004  5.9771416400000001
  6.1550555899999999  8.3514741099999998  5.8429735000000003
  2.1277682499999999  1.0832093700000001 12.6137630400000003
  6.1908816499999997  1.3638931900000000 12.5014164799999996
 10.3314818200000005  1.1930721500000001 12.6195963599999992
  0.0234077700000000  4.7727292300000004 12.6170711000000004
  4.1320391900000004  4.5559189399999998 12.5945385299999995
  8.2615019400000005  4.7871469199999996 12.6313111300000003
 -2.0710645599999999  8.3467429400000004 12.4909756299999994
  2.0930814199999999  8.3176861599999992 12.6348765899999993
  6.1922537799999997  8.3715899300000007 12.5672525099999994
