Cd S 
 1.0000000000000000
    12.3977854500000007    0.0000000000000000    0.0000000000000000
    -6.1988927199999999   10.7367971499999992    0.0000000000000000
     0.0000000000000000    0.0000000000000000   13.4479464199999992
 Cd  S  
  36  36
Cartesian
 -0.1082869700000000  2.2380349000000002  0.0807601600000000
  4.3221446700000001  2.3314279700000000 13.3128066599999997
  8.2680591299999993  2.3863419600000002 13.4477677000000000
 -1.9065532599999999  6.0379259200000002  0.0301025600000000
  2.1764634100000002  5.9483066200000003  0.0718488800000000
  6.2735067500000001  5.9512972499999997  0.0699781400000000
 -4.1536810099999997  9.4994132699999998  0.0218457900000000
 -0.0317675900000000  9.3205457500000009 13.3438930700000000
  4.3132044399999998  9.4051572900000000  0.0242884700000000
  0.0161225200000000  2.3788650699999998  6.7233684599999997
  4.1477910800000002  2.5299121599999999  6.7495440799999997
  8.1770279499999994  2.5198429700000000  6.7253723299999999
 -2.0263243599999998  5.8461374099999999  6.9165548000000001
  2.0786771200000000  5.9626963000000002  6.7219050500000002
  6.2077498300000000  5.8877479800000003  6.7340646800000004
 -4.1675657199999998  9.6361082699999994  6.7745374900000002
 -0.0884081100000000  9.4119010799999998  6.5628443499999998
  4.1008042800000002  9.7677989499999995  6.6824947699999999
  2.1002130600000002  1.2215469900000000  3.3395819200000001
  6.2609027299999997  1.2225136299999999  3.2921249299999999
 10.3827248399999998  1.2737931100000000  3.3971816300000000
 -0.0445052600000000  4.7937736700000002  3.1672532100000002
  4.1855452499999997  4.7244648600000003  3.2658044700000000
  8.2782855000000009  4.7961831200000002  3.3643304500000002
 -2.1927427499999999  8.5090047200000001  3.3454099899999998
  2.0651873400000000  8.3335754400000006  3.3799404200000001
  6.2576533999999997  8.3801579999999998  3.3615422800000001
  2.0147101799999998  1.1947491299999999 10.1670444799999995
  6.0807093500000002  1.0184788300000001 10.1006153899999997
 10.3993525099999999  1.3026639200000001 10.0850733300000002
 -0.0100647700000000  4.8397987799999997 10.1340745499999993
  4.1567726499999997  4.9993696999999999 10.0990033799999992
  8.4146591599999994  4.7171265800000004 10.1277510599999996
 -2.0580988900000001  8.3524483699999994 10.0837906600000000
  1.8316761600000000  8.3765924199999997 10.0427210400000000
  6.0390235299999997  8.5291800200000001 10.1129596599999996
  0.0242220500000000  2.4586002800000002  2.5144647500000001
  4.1766769200000002  2.4247289099999998  2.5924792399999999
  8.3910543999999998  2.4255485600000002  2.5329856600000000
 -2.2624333100000000  5.9454505299999996  2.6728846499999999
  2.1798687100000000  5.9076525999999996  2.3747205500000002
  6.0950522899999999  5.8975149199999999  2.4630200300000000
 -4.1711730500000002  9.5002226099999998  2.4895483899999999
 -0.0618906100000000  9.5237041999999992  2.5060215900000000
  4.1488309399999999  9.5809219900000002  2.4970972599999999
  0.1552985000000000  2.4202916100000000  9.2931373399999995
  4.1158884100000002  2.3048771600000002  9.0579928699999996
  8.2670132499999998  2.3982155700000001  9.2266482799999991
 -2.0459607200000001  5.9783679400000000  9.2613018900000004
  2.1102786400000002  6.0022170499999996  9.3760930200000008
  6.2974633000000004  5.9253671399999996  9.1529295899999994
 -4.1247337899999996  9.5453128700000001  9.2382873399999994
  0.1316509700000000  9.6114843899999993  9.2960874199999992
  4.1334894300000000  9.3488164900000008  9.2881243500000004
  2.0661929200000002  1.2015428399999999  5.8802361400000001
  6.0540711600000003  1.0541399300000001  5.7948032200000004
 10.3434772400000004  1.2356303399999999  5.7565194699999997
  0.1141495700000000  4.7131781200000002  5.9551514200000000
  3.9906609899999999  4.9482474099999996  6.0002792400000002
  8.2939067800000004  4.8981507999999998  5.7704362099999997
 -2.0552265099999998  8.3906785599999996  5.9096632099999997
  1.9463256099999999  8.3231915599999997  5.8695018599999997
  6.1705942299999998  8.2807476100000006  5.9417197499999999
  2.0961801900000001  1.2344264300000001 12.7119872500000000
  6.2245239699999999  1.1727527600000001 12.6014678500000006
 10.2679579200000006  1.1296799500000001 12.5202692899999999
  0.1091895900000000  4.7666937500000000 12.6000528599999999
  4.2432466499999997  4.7474521200000002 12.5826890099999993
  8.2903029900000007  4.7509327800000003 12.6170237699999994
 -2.0824816199999998  8.2494313800000008 12.6082187200000000
  2.1831841299999999  8.2773056100000009 12.5797101500000004
  6.1368214200000004  8.4669713400000006 12.4848359700000007
