Cd S 
 1.0000000000000000
    12.3977854500000007    0.0000000000000000    0.0000000000000000
    -6.1988927199999999   10.7367971499999992    0.0000000000000000
     0.0000000000000000    0.0000000000000000   13.4479464199999992
 Cd  S  
  36  36
Cartesian
 -0.0322635600000000  2.4699665799999999 13.3766934200000005
  4.1245798200000001  2.4268374000000001 13.4331977899999995
  8.4865426999999993  2.3610407000000002 13.4084066300000000
 -2.1968530500000001  5.8487202500000004 13.3139720599999993
  2.0665765700000001  5.9732408000000001  0.1115812400000000
  6.2649674099999997  5.9644047300000000  0.0213008700000000
 -4.1388652800000001  9.4470413200000003  0.0424624300000000
  0.0110843700000000  9.5575708499999994  0.0432788500000000
  4.2338494999999998  9.5488110200000005  0.2024921800000000
 -0.0202274200000000  2.4530623500000002  6.7745384299999998
  4.1264133899999997  2.3707274400000000  6.6655401300000001
  8.2604351099999995  2.3385475400000000  6.7321366500000002
 -2.0269078700000001  5.9793367200000000  6.7317024200000004
  2.0766055099999998  5.9972317400000001  6.7494125599999997
  6.1589889700000002  5.9581072800000001  6.7056542800000001
 -4.1702998700000000  9.6787585899999993  6.6873510899999999
  0.0266660900000000  9.4708238700000003  6.7847080399999999
  4.1411672499999996  9.4544523999999992  6.8907075700000000
  2.1669030999999999  1.3374814300000000  3.4130846300000002
  6.2147128599999997  1.2815276799999999  3.2146050499999999
 10.5456962099999991  1.2073284700000000  3.3098498599999999
 -0.1193003500000000  4.8059479100000004  3.3948852600000001
  3.9702409699999999  4.6735039399999998  3.4027762400000001
  8.1942445700000004  4.8655023499999999  3.5660919999999998
 -2.1872675799999999  8.3818910300000002  3.3243853400000001
  2.0874982700000002  8.3949821900000003  3.1547502500000002
  6.2304711900000003  8.2531619799999998  3.3846352300000002
  2.0176811899999998  1.1782711500000000 10.0750020199999994
  6.0406162700000001  1.0929919900000000 10.0349861800000006
 10.2400728300000008  1.2264333100000000 10.1543251399999992
 -0.0649096600000000  4.6141316000000003 10.0009517100000007
  4.1685394499999999  4.7801338600000003 10.0528820400000001
  8.2808539499999991  4.7815465000000001 10.0722501700000002
 -2.0712700499999999  8.3499651600000000 10.0959430300000008
  2.0728686900000000  8.3495437399999997 10.0670407100000006
  6.0748932399999998  8.5180671199999995 10.0538379199999994
 -0.0616096200000000  2.2929610299999998  2.5688681400000002
  4.3137150399999999  2.3470328299999998  2.6649838500000000
  8.4929030700000006  2.3939748600000001  2.5405540300000000
 -2.0268316199999998  6.1002594700000001  2.3291008099999999
  2.2155675100000001  5.8745890599999999  2.3888543400000000
  6.0253180300000002  6.0375915800000000  2.6146376899999999
 -4.1345466399999999  9.5388551100000001  2.5473262800000001
  0.0013004700000000  9.4861394800000003  2.6420319700000001
  4.0822453500000000  9.5133756199999997  2.6648905200000002
 -0.0274211100000000  2.5845681400000000  9.1727138099999994
  4.0698813500000002  2.4144287800000002  9.2357550899999996
  8.2635460900000002  2.1880719700000002  9.1100899500000008
 -2.0620032699999999  5.9789244300000002  9.3906539200000001
  2.0436261000000000  6.0085291099999996  9.3088614900000000
  6.1834420500000000  5.9351722999999996  9.1396364299999995
 -4.0776783099999996  9.6338769499999994  9.1658035800000004
 -0.0229592100000000  9.5195239399999991  9.2367670499999992
  4.2065802000000003  9.5328645200000004  9.3144063500000005
  2.3142565500000001  1.2098025500000000  5.8716675100000000
  6.1872853000000001  1.1936977799999999  5.8744143900000001
 10.3299733200000006  1.1936857599999999  5.8941050099999996
  0.1758753600000000  4.8079600999999998  5.9045708699999997
  4.0060757699999998  4.8625495200000000  5.9739353800000004
  8.2811854700000005  4.7762798899999996  5.9268989000000003
 -2.1853565200000000  8.4752097899999992  5.8049939400000001
  2.1491762599999999  8.2921017700000004  5.9334682200000000
  6.1964550799999998  8.3450518999999996  5.8932914099999998
  2.0451256099999999  1.0964740399999999 12.5680955599999997
  6.1564122100000001  1.2731157200000001 12.6197225000000000
 10.3709320700000003  1.1824382099999999 12.5499373399999996
 -0.0068787900000000  4.7842465900000004 12.6503079700000001
  4.2244483199999996  4.7690892399999996 12.6900841700000004
  8.2526385799999993  4.7734576100000004 12.4155380300000004
 -2.0070842400000002  8.4397110400000006 12.8277499899999992
  2.0307124999999999  8.3333258099999998 12.6459472000000002
  6.2669311600000004  8.4294081199999997 12.5380930599999996
