Cd S 
 1.0000000000000000
    12.3977854500000007    0.0000000000000000    0.0000000000000000
    -6.1988927199999999   10.7367971499999992    0.0000000000000000
     0.0000000000000000    0.0000000000000000   13.4479464199999992
 Cd  S  
  36  36
Cartesian
 -0.0391467500000000  2.4790667700000002  0.1756406700000000
  4.2216713400000003  2.4076266899999998  0.1645079200000000
  8.3044145799999995  2.4042873400000002 13.3712464600000001
 -2.1538016799999999  6.1349229999999997 13.4415420999999995
  2.0658199900000001  5.9713192299999998 13.3869594500000009
  6.1223087600000001  6.0138825799999998 13.4171944599999993
 -4.1013789699999998  9.5994531700000003  0.0531647100000000
 -0.0855971000000000  9.4662645899999998  0.1223760400000000
  4.1908379299999998  9.6880420500000000  0.0964291700000000
 -0.0218693200000000  2.4014064400000001  6.7340174800000003
  4.2409963900000003  2.3704398000000002  6.6505809100000004
  8.2908442099999995  2.4112389799999998  6.6870466300000002
 -2.0669063400000001  5.9641847400000003  6.7260054599999997
  2.0888582400000000  5.9315624800000002  6.7172431899999996
  6.2346028799999997  5.8500956400000002  6.6802254300000001
 -4.2195049400000002  9.6792026599999996  6.8738901099999996
  0.0332196800000000  9.6290282099999995  6.6826132400000002
  4.3032594900000003  9.5611826000000004  6.6720326700000001
  2.1537375900000000  1.3756293700000000  3.4319755000000001
  6.3029839699999997  1.2667813299999999  3.2929269600000000
 10.3243213600000008  1.1745760800000000  3.4044786199999999
  0.0525065500000000  4.8979721400000003  3.3380855700000001
  4.1707024300000004  4.8757125099999996  3.2582359699999999
  8.2007121900000008  4.7570994600000001  3.3914151499999998
 -2.2499507799999998  8.2461418399999999  3.4820442200000001
  2.0971832899999998  8.3937025799999994  3.2963638500000001
  6.0248752400000001  8.2618151999999991  3.4266503799999999
  2.1824492499999999  1.1855169900000000  9.9048544399999994
  6.1678614999999999  1.1465790199999999 10.0334751700000009
 10.3235103600000002  1.1935695799999999 10.0744197300000007
 -0.1250543500000000  4.5975253100000000  9.9968484800000006
  3.9847026099999998  4.7890080399999997 10.0180705499999991
  8.2311475699999992  4.7195967899999998 10.0514740400000004
 -2.1359419200000000  8.1966012900000003 10.2600442899999997
  1.9509167599999999  8.3789576300000004  9.9432799299999992
  6.1710379399999997  8.3309090700000006 10.0782749900000006
  0.0591634700000000  2.4018857300000001  2.6443003699999998
  4.3193597500000003  2.2332047400000001  2.5102962899999999
  8.2028151600000001  2.4260127100000002  2.5507801200000002
 -2.0661609900000002  5.9679692400000004  2.5352701999999998
  2.1038572100000001  6.0552626299999996  2.3241227800000002
  6.0936959100000001  5.9055953199999998  2.5094851100000000
 -4.1630268299999997  9.5387198299999998  2.5178639800000000
 -0.0760133600000000  9.4251626300000009  2.5204502899999999
  4.0269726099999996  9.7368748299999996  2.5803861800000001
  0.0432036800000000  2.2121783300000000  9.1133902100000004
  4.1373623100000003  2.5449881200000002  9.4102288800000000
  8.2958963099999998  2.2504558700000001  9.3398348000000002
 -1.8409685400000000  5.9676661400000004  9.2045785799999997
  2.0343146200000000  5.9726170999999999  9.2532179200000009
  6.3200758099999996  5.9379527000000003  9.2269749300000008
 -4.2387058299999998  9.5756914500000008  9.4129693099999994
  0.0228739800000000  9.4762118100000006  9.2270242800000002
  4.2324088800000004  9.5049211400000004  9.3706631399999996
  2.1424497699999998  1.3629988200000001  5.8882755900000001
  6.2053793099999996  1.3074276300000001  5.7120788500000002
 10.3317000799999992  1.1922152399999999  5.8976001299999998
  0.0042005000000000  4.7363658400000004  5.9153007200000003
  4.1337582700000004  4.7899499800000003  5.8204206200000002
  8.2256038999999994  4.8169357399999999  5.8803586499999998
 -2.0966513600000001  8.5219489999999993  5.8600472799999999
  2.0001232000000000  8.3202110299999994  5.9350120500000001
  6.1438914400000000  8.3797749100000001  6.0071906700000000
  2.0910949200000002  1.2364347400000000 12.6659163299999999
  6.1810421499999997  1.1956860199999999 12.6327996900000006
 10.3485532599999992  1.1814906900000000 12.6044078400000004
 -0.0513856600000000  4.9734939100000002 12.7040093899999995
  4.0503477099999996  4.7598102899999999 12.6761635300000002
  8.1943983100000004  4.6126887900000000 12.6038810899999998
 -2.1226273199999999  8.2930529400000008 12.5856362599999994
  2.1704202399999999  8.3190614400000005 12.7645910400000009
  6.1492289400000004  8.3692977299999995 12.7184548999999993
