Cd S 
 1.0000000000000000
    12.3977854500000007    0.0000000000000000    0.0000000000000000
    -6.1988927199999999   10.7367971499999992    0.0000000000000000
     0.0000000000000000    0.0000000000000000   13.4479464199999992
 Cd  S  
  36  36
Cartesian
 -0.0646568700000000  2.4625068699999999  0.0021796400000000
  4.1890064000000002  2.3961241499999999 13.3593229699999991
  8.2622647800000006  2.3999025299999999  0.0055515800000000
 -2.1299085400000002  6.0892478099999998  0.0738945800000000
  2.0723238700000000  5.9147425399999998  0.0032802200000000
  6.2745438299999998  6.0748825100000001  0.0710437500000000
 -4.1478065700000002  9.5431345899999993 13.4154493200000005
 -0.0169137400000000  9.5641730200000001  0.0715748100000000
  4.1133791700000000  9.6728456200000004  0.1035474400000000
  0.0732650200000000  2.4506753500000000  6.6869695699999996
  4.0216847099999997  2.2536138900000000  6.8417354000000001
  8.3313840399999997  2.2907065200000001  6.7561830599999997
 -2.0064527600000002  6.0018397600000002  6.8310068900000003
  2.1420737500000002  5.9827310499999999  6.7057749099999997
  6.0794871800000001  5.9100940399999997  6.7204456800000001
 -4.1757907899999998  9.5847022000000006  6.7596059600000000
  0.1761969600000000  9.5860811300000002  6.7520371900000002
  4.0417830099999996  9.4897277199999994  6.6425063599999996
  1.8342718200000001  1.2421413500000000  3.4179514400000000
  6.2130977400000003  1.3697746000000000  3.4545204500000000
 10.3240403599999997  1.1955161599999999  3.3521452599999999
 -0.1161102200000000  4.8371171600000000  3.1695197300000002
  4.0727399000000002  4.8700057899999996  3.1544760500000000
  8.2567348700000007  4.8291973700000002  3.3602259999999999
 -2.0332619799999998  8.4145264900000001  3.4364775999999999
  2.1318660399999998  8.2028204700000007  3.2673460099999998
  6.2539639999999999  8.2565616800000008  3.5574651500000001
  2.1725414299999999  1.3237463800000000 10.0548657400000003
  6.0998363400000004  1.1211882200000001 10.1907515899999996
 10.3416111799999992  1.2078215000000001 10.0854899400000004
 -0.0727011700000000  4.6956137900000003 10.0242037499999999
  4.1316117200000004  4.7706776399999997 10.0860626900000003
  8.1760990499999995  4.7997426900000004 10.1463004800000007
 -2.0189548700000000  8.3314733899999993 10.1340442900000003
  2.0322267100000002  8.3420740500000008 10.2370388899999991
  6.1107596600000003  8.3351348499999993 10.0155200099999995
 -0.0069515000000000  2.3861313000000002  2.5149344800000000
  4.2116698000000001  2.2857170199999999  2.4719805300000002
  8.2929352200000004  2.4296444300000002  2.3775529500000001
 -2.1681666800000001  5.9506365099999998  2.5524744300000002
  2.1263855299999999  6.1280758300000002  2.6797577600000002
  6.1669888899999998  5.8110866000000003  2.5791234099999998
 -4.1370642599999998  9.5450210400000000  2.5194850000000000
  0.0038342100000000  9.5510453500000008  2.5323242900000000
  4.1940969900000002  9.7398014699999997  2.4645124799999998
  0.0571897500000000  2.3698129799999998  9.2619629900000007
  4.0999459099999997  2.5931922599999999  9.2236723800000000
  8.2679664499999994  2.3949727300000001  9.2765017000000007
 -1.9757387300000000  6.0703149700000001  9.3262982300000008
  2.0346738400000000  5.9634481900000003  9.2518354699999996
  6.0841570500000000  6.1519930100000000  9.1486482999999996
 -4.1376593499999998  9.5555257099999995  9.2106007099999996
 -0.0737892000000000  9.5657081599999998  9.0422290600000004
  4.1174434700000004  9.5699406099999997  9.2505050700000009
  2.1900446900000001  1.1895839800000001  5.9381881800000000
  6.2096763199999998  1.1893845900000000  5.8881627600000002
 10.2981911600000000  1.3267199300000001  5.8747294800000001
  0.0356117100000000  4.7648742999999998  5.9152835100000001
  4.1535722899999996  4.7468879099999999  5.9048375499999999
  8.1608831899999998  4.5969367200000004  5.8594457499999999
 -2.0655275199999998  8.3699639500000007  5.8729651100000000
  1.9999948800000000  8.2170989100000007  5.9177163799999999
  6.2112101800000001  8.3408980400000008  5.8788609500000000
  2.0815153999999998  0.9622405600000000 12.6794498000000004
  6.2621606700000001  1.1958635000000000 12.6529968900000007
 10.3016658900000007  1.1544104399999999 12.6351698900000002
 -0.0159604700000000  4.7032624700000003 12.5707419900000001
  4.2012661299999996  4.7607434199999998 12.8121950200000008
  8.2320761099999995  4.7474288299999996 12.6515512300000008
 -2.0888692099999999  8.3818923200000004 12.6617380500000003
  1.8745725600000001  8.3352773300000003 12.7263409099999993
  6.1926087900000004  8.3375026400000003 12.6149570799999999
