Cd S 
 1.0000000000000000
    12.3977854500000007    0.0000000000000000    0.0000000000000000
    -6.1988927199999999   10.7367971499999992    0.0000000000000000
     0.0000000000000000    0.0000000000000000   13.4479464199999992
 Cd  S  
  36  36
Cartesian
 -0.0865446600000000  2.3039903000000002  0.1838946200000000
  4.0899522399999997  2.4188209899999999  0.0467948200000000
  8.2956978199999991  2.3484317199999998  0.1193789000000000
 -2.0270294299999998  5.9627965800000000 13.3635208799999994
  1.8564494199999999  5.9313177899999996  0.1216553700000000
  6.1994980499999999  5.9726274000000004  0.0398145300000000
 -4.1251883600000001  9.7179177299999999  0.0377684200000000
  0.0122167800000000  9.5307243499999998 13.2834925599999991
  4.1256213600000002  9.5474217899999996  0.0010910300000000
  0.0129449600000000  2.4128934200000001  6.7507789999999996
  4.1720946999999997  2.3757059800000002  6.6300257199999999
  8.2467827899999993  2.4016809800000001  6.7616554300000002
 -2.0668694599999999  5.9816057300000001  6.7213967200000004
  1.8970139200000000  6.0489124500000004  6.7609506200000000
  6.2161690399999996  5.8091825400000001  6.7307688600000004
 -4.1055494599999998  9.6220167599999993  6.6480742099999999
 -0.0287942900000000  9.5874649999999999  6.7346870499999998
  4.1122061499999996  9.5139716199999995  6.7307141300000000
  1.8486391200000001  1.2560830800000000  3.2988881700000001
  6.0057786200000001  1.0692991000000001  3.4605316799999999
 10.3002861400000008  1.1605662800000001  3.3548219399999999
  0.0605018200000000  4.7124899999999998  3.3330434000000002
  4.1365645700000000  4.5816134899999996  3.2919768600000001
  8.2561370499999995  4.7697842300000000  3.3589437400000000
 -2.0197089699999999  8.3043652300000002  3.5257843400000000
  2.0553726900000000  8.4653231400000006  3.3919003499999998
  6.2306525099999996  8.2818714300000007  3.3611707200000001
  2.0104856400000002  1.1878616900000001 10.1999315599999996
  6.1434922299999997  1.1890259900000000 10.1604173299999996
 10.2466378900000006  1.1286338600000001  9.8944860699999992
 -0.0578945600000000  4.7421776700000002 10.1797288500000001
  4.1304395700000001  4.7713097199999996 10.0906397000000005
  8.2800150000000006  4.5629906199999999  9.9704306599999999
 -2.0679813600000001  8.4709968900000003 10.0722501700000002
  1.9875422400000000  8.3089486600000004 10.1078353199999995
  6.1894714000000004  8.3374304899999991 10.2013769500000002
  0.1994358600000000  2.4010858399999999  2.6546018999999998
  4.1626875099999996  2.3325743299999999  2.5016879900000002
  8.3101142100000001  2.3495455600000001  2.5096104399999999
 -2.1267973200000001  5.9734641200000000  2.3071394999999999
  2.0861024000000001  5.9837474999999998  2.3533880699999998
  6.1491835000000004  6.0706056200000003  2.3928084400000000
 -4.0671232699999997  9.4970831699999998  2.4678132800000001
 -0.0424458600000000  9.5620239399999996  2.4917685100000000
  4.2907467199999996  9.5216382300000006  2.6937457800000000
 -0.0022417700000000  2.3274339899999998  9.3271505599999998
  4.0601412699999999  2.3950467099999999  9.3515472899999992
  8.2518353900000001  2.5227239799999999  9.2455295999999993
 -1.8835830800000000  5.9102444600000004  9.2337851000000004
  2.1089651599999999  5.8746025900000003  9.3459345200000001
  6.1183810799999998  5.9400006400000001  9.2736605500000007
 -4.0921731200000000  9.5673853599999994  9.2802800300000001
 -0.1302008600000000  9.6214158199999993  9.2072467899999992
  4.1336167499999998  9.5767065099999993  9.2959655800000007
  2.0580048600000000  1.2053590199999999  5.8991080499999997
  6.1472726900000003  1.2187892499999999  5.9457794200000000
 10.3225813300000002  1.1603521900000000  5.9049047899999998
 -0.0095955100000000  4.8336133099999996  6.0140757499999999
  4.1876864100000004  4.8674475399999997  5.9836215299999997
  8.2813416800000006  4.8320098800000002  5.8539362600000002
 -2.0507070900000000  8.4409749800000000  6.0079477900000002
  2.1240017500000001  8.3580717700000005  5.8620452399999996
  6.1261963300000000  8.3255757799999994  5.7867035199999997
  2.0662674299999999  1.1929780900000000 12.6193481100000007
  6.1983504500000004  1.1905748800000000 12.6185320900000004
 10.4162644499999999  1.1908144100000000 12.6928041500000006
 -0.0236699700000000  4.6849977899999997 12.6534262799999997
  4.1119688500000002  4.7769886200000000 12.5947199399999992
  8.4402993899999998  4.7185041099999996 12.7605910799999993
 -2.0169238699999998  8.3864077800000008 12.7362278399999997
  2.1571351399999998  8.4383541300000005 12.5855745300000006
  6.1097130999999996  8.2560814300000001 12.7205578900000003
