Cd S 
 1.0000000000000000
    12.3977854500000007    0.0000000000000000    0.0000000000000000
    -6.1988927199999999   10.7367971499999992    0.0000000000000000
     0.0000000000000000    0.0000000000000000   13.4479464199999992
 Cd  S  
  36  36
Cartesian
 -0.0152453100000000  2.4287212800000000  0.2018969800000000
  4.1495196400000003  2.3752729700000002  0.0067335200000000
  8.1863750199999998  2.3826297099999998 13.4107970099999996
 -1.9677652200000000  6.1607359800000001  0.0046617300000000
  1.8986544500000000  6.0409784999999996 13.4457648899999995
  6.1510333700000004  6.0834021600000003 13.3125979500000007
 -4.0941565100000004  9.6759521999999993 13.2671962000000008
  0.0250297100000000  9.5504466699999995  0.0034214300000000
  4.0931674300000003  9.6280012399999997 13.2230959499999994
  0.0628190800000000  2.2133520799999999  6.7616409099999997
  4.1408026299999996  2.3960626299999999  6.7264247700000004
  8.3586022599999996  2.2257549100000000  6.7513095200000004
 -2.2747183299999998  5.9416639800000004  6.7463696899999999
  2.1414266500000001  5.9516208600000002  6.7464460700000002
  6.2243716600000001  5.7355124300000000  6.8093279999999998
 -4.1267618199999996  9.4215523799999996  6.8105032100000003
 -0.0187025500000000  9.5470492199999999  6.7173480799999998
  4.1270419599999997  9.5531995799999994  6.7488344299999996
  2.0325889099999999  1.1694281099999999  3.3654651900000001
  5.9762738700000000  1.2015218999999999  3.2851825600000000
 10.3327000899999994  1.2101031799999999  3.2900409000000002
  0.0916919800000000  4.6605950900000002  3.4508287100000001
  4.0658360099999999  4.6143417199999996  3.4459762899999999
  8.1475637499999998  4.6566154900000001  3.5071200700000000
 -2.0650633500000000  8.3500278699999999  3.3627373999999999
  2.1873308800000002  8.4173423199999995  3.4328746300000001
  6.2560826599999997  8.3298459099999995  3.3451695400000001
  2.0665259200000001  1.1726307899999999 10.0529390500000009
  6.2048120500000001  1.2067612400000001 10.0743419999999997
 10.3790386699999999  1.0991381600000001 10.0179450800000005
 -0.0212344900000000  4.7178793299999997 10.2119232300000000
  3.9618432600000002  4.6600607199999997 10.0385384599999998
  8.2749993499999999  4.8147796800000000 10.0992707300000006
 -2.0880888299999998  8.3287079100000003 10.0807463199999994
  2.0646785300000001  8.3486359500000002 10.0938319700000001
  6.0456787299999997  8.4110523799999992  9.9211370799999994
  0.1376806300000000  2.4348202099999998  2.5336104499999998
  4.1629615600000003  2.4251926300000002  2.5390028099999999
  8.2857358300000001  2.4466654700000001  2.4964915699999999
 -2.2312372599999999  6.0684957300000004  2.4623890500000001
  2.0571404900000001  5.9845928099999997  2.5239996100000002
  6.2044107300000002  5.9985845800000002  2.5424379500000001
 -4.0272684800000000  9.6805853499999994  2.5770813399999999
  0.1015787200000000  9.6697563199999994  2.5357771900000001
  4.2153548599999997  9.6810424099999999  2.5655288900000000
  0.0691752400000000  2.3876093300000001  9.0591633799999993
  4.1794950599999998  2.2427762699999998  9.4186052000000000
  8.2733009699999993  2.5403049499999999  9.2119808699999997
 -2.0582455600000000  5.9855667500000003  9.2625857600000003
  2.0678312299999999  5.9716369299999998  9.2774897200000002
  6.2304280399999996  6.0638566799999998  9.2810699600000000
 -4.2402866100000001  9.6917971400000003  9.1232526600000003
 -0.0405697000000000  9.4423376399999999  9.3609447100000001
  4.1028451400000003  9.5786252800000007  9.2533845400000008
  2.0055226199999998  1.2692733400000000  5.8989150700000001
  6.2339226099999996  1.2326451899999999  6.0424298099999998
 10.2938125100000004  1.1357816700000001  5.8388935200000001
  0.1734533900000000  4.6748438900000000  5.9315600899999996
  4.1387269900000003  4.8185168400000000  5.8816191299999998
  8.3341472599999999  4.7653596000000000  5.9099838099999999
 -2.0838421500000002  8.3628937699999994  6.1046984999999996
  2.1550730800000002  8.3816156300000006  5.8236579400000004
  6.4279021399999996  8.3714066500000008  5.8092551900000000
  1.9316000799999999  1.1544632699999999 12.6120082199999999
  6.2519612599999999  1.2812706400000000 12.5808639899999992
 10.3386950399999993  1.1855053900000001 12.6288859299999991
 -0.0411440300000000  4.7841336400000003 12.6435872200000006
  4.1070517700000000  4.7875454700000004 12.6055568400000002
  8.2921827399999994  4.8961492499999997 12.4712906599999993
 -2.0786932299999998  8.2995936900000000 12.8182176800000001
  2.1403357100000000  8.3920638200000006 12.8356836100000002
  6.1822312799999999  8.3124542300000002 12.6066545899999998
