Cd S 
 1.0000000000000000
    12.3977854500000007    0.0000000000000000    0.0000000000000000
    -6.1988927199999999   10.7367971499999992    0.0000000000000000
     0.0000000000000000    0.0000000000000000   13.4479464199999992
 Cd  S  
  36  36
Cartesian
  0.0396765100000000  2.3868340300000002  0.0339099400000000
  4.2264178299999999  2.4076460200000001 13.4136081600000008
  8.2043174000000008  2.3445725999999998  0.0420284600000000
 -2.1014114300000002  5.9869852899999998 13.4234825900000008
  1.9107210299999999  6.0104908300000002 13.3619494900000007
  6.3932901900000001  6.0520756200000001 13.3707522500000007
 -3.9036907599999999  9.6179188500000006  0.0253507200000000
 -0.0218479900000000  9.5445312300000005 13.3713173300000001
  4.2775508300000000  9.4931044399999998 13.4316753500000008
 -0.0501433400000000  2.3625772399999998  6.7089878900000004
  4.2967721599999997  2.3750499600000001  6.7301384200000003
  8.2017001700000005  2.3395959899999998  6.7100629200000004
 -2.1725569899999999  5.9585085099999997  6.6250883099999998
  2.1064604899999999  6.0194259900000002  6.6586081200000002
  6.2537081700000003  6.0474393700000002  6.8507959500000002
 -4.1024935300000003  9.5042173499999993  6.6032674000000000
  0.1438451200000000  9.6308021499999992  6.7117397499999996
  4.1544687099999997  9.4974816200000003  6.7460476099999998
  2.0711399400000001  1.1057387200000000  3.4008699999999998
  6.2007860499999996  1.2049968600000001  3.3629669600000001
 10.3394387200000004  1.0574614600000001  3.3222765700000001
 -0.0170563100000000  4.7692418099999996  3.3733553600000001
  4.2006662700000001  4.9396638800000003  3.5231825699999999
  8.2578322600000007  4.7477863600000001  3.3591606500000002
 -1.9347413000000000  8.2685392300000000  3.4327841299999999
  2.1038158600000001  8.3188540000000000  3.2883693200000002
  6.1000503899999998  8.5285751100000002  3.4798192600000002
  2.0428418700000002  1.1308396300000001 10.0785841499999993
  6.1991956699999999  1.2436212000000000 10.3228116399999994
 10.4333461199999995  1.0604314699999999 10.0340933700000008
  0.1553027200000000  4.8176955799999996 10.0780846999999998
  4.1314579900000004  4.8320558299999998 10.1571978900000008
  8.1092293000000009  4.6543438000000004 10.2267618299999992
 -2.2527007299999999  8.3891843200000000 10.0071887400000001
  1.9923939900000001  8.2783780000000000  9.9418422100000008
  6.1950218899999996  8.3520157800000003 10.0876180800000004
 -0.0458353600000000  2.4340926800000000  2.4167673000000001
  4.1557880200000001  2.3556088399999999  2.5182265400000001
  8.2465296899999991  2.3831008400000000  2.4738640500000000
 -2.1997703700000000  5.9351134600000002  2.5786297399999998
  1.9221969200000000  5.9205980699999996  2.7001432300000001
  6.3433097600000004  6.0206266800000003  2.5402311499999999
 -4.1448468399999996  9.3834990299999994  2.5495723600000000
 -0.1724432700000000  9.5700972600000007  2.4822339200000001
  4.1164082500000001  9.5833302600000003  2.5288894200000001
 -0.0087796100000000  2.3742217299999999  9.2271549999999998
  4.2098086400000003  2.3844094400000002  9.1999971400000007
  8.2763258499999992  2.3853062899999999  9.2590098199999993
 -2.1198668299999999  5.9388587800000003  9.2635296700000005
  2.0712675200000001  5.9688539599999997  9.2634249099999995
  6.1985184999999996  5.9638505000000004  9.2575860799999994
 -4.0946193900000001  9.4355470500000003  9.1796587299999999
  0.0153230500000000  9.5410703300000002  9.2607907300000001
  4.1349972499999996  9.5965642199999994  9.3247341000000006
  2.0040447399999999  1.1325626700000000  5.7644151700000004
  6.2085406799999996  1.1472437400000000  5.9043703599999997
 10.3099408599999993  1.2218773599999999  5.9012538000000001
 -0.0004439600000000  4.7728761100000003  5.8958642699999997
  4.2358188900000000  4.8304701100000003  5.9316770900000000
  8.2852478499999993  4.7959230699999997  5.9036546599999999
 -2.2505989400000002  8.3145927799999999  5.7954089199999999
  1.9415909600000001  8.2754543700000003  5.8892971000000003
  6.1423870899999997  8.2812740300000005  5.8860631400000001
  2.0418361699999998  1.1514998100000000 12.5256865200000007
  6.0385775800000001  1.1382725000000000 12.4989826700000002
 10.4122012000000002  1.3004343199999999 12.5198271200000004
 -0.0123643100000000  4.8875356500000002 12.7239735300000003
  4.1086619300000002  4.7604697399999996 12.6304999500000008
  8.2128835900000006  4.7180739899999997 12.6208307400000006
 -2.0670971499999999  8.3648898500000008 12.5987501599999998
  2.0738167500000002  8.3907440599999994 12.6915236399999998
  6.2192366899999998  8.4274633600000008 12.4601367900000000
