Cd S 
 1.0000000000000000
    12.3977854500000007    0.0000000000000000    0.0000000000000000
    -6.1988927199999999   10.7367971499999992    0.0000000000000000
     0.0000000000000000    0.0000000000000000   13.4479464199999992
 Cd  S  
  36  36
Cartesian
  0.0333552500000000  2.3789826399999998 13.2055311799999995
  4.2758023600000001  2.4462285900000000  0.0509784800000000
  8.3038689500000000  2.4041567800000001 13.4408921699999997
 -1.9583398700000001  6.0205311300000002  0.2139845300000000
  2.0103477800000000  5.9317325500000004 13.4173579899999993
  6.2784058600000003  6.1329816800000003 13.3728221600000001
 -4.1302976700000000  9.5459336700000001  0.0022654400000000
 -0.0369719900000000  9.5150553900000006  0.0104143600000000
  4.1556763200000004  9.4364904900000006 13.4391923400000000
 -0.0072088800000000  2.4287997699999999  6.7530250799999996
  4.1713800900000004  2.3845580399999999  6.6680953799999996
  8.2408177800000004  2.3628256900000002  6.7329411099999996
 -2.0321122100000002  5.9149891600000002  6.5007900200000002
  2.0846277400000002  5.9495734599999999  6.7262789900000000
  6.3813503200000001  5.8957795300000004  6.7545199499999997
 -4.2185772200000002  9.4406525000000006  6.5846302999999997
  0.0151326800000000  9.5602476400000000  6.7359354299999996
  4.1322287600000003  9.5445503400000007  6.7224833100000003
  2.0877546499999999  1.2050537699999999  3.3748587099999998
  6.3691976900000000  1.1291111100000000  3.2781428300000002
 10.3259059799999999  1.1531197700000000  3.3530880999999999
 -0.0943718200000000  4.6114438499999997  3.4197195800000002
  4.1280205800000003  4.7553916599999999  3.3927454199999998
  8.3781711800000007  4.7775407100000002  3.2278288200000000
 -2.0569579899999999  8.3847314500000003  3.3376322400000000
  2.1796273899999998  8.3131193700000008  3.5583872699999999
  6.2219666199999999  8.3456641099999995  3.3636046600000000
  2.0702098000000002  1.0946732699999999 10.0887507999999997
  6.2043934399999996  1.0877916200000000 10.1188920899999992
 10.2805086400000008  1.1997898400000000 10.1045713700000004
 -0.0533280200000000  4.7587392900000003 10.0184158900000000
  4.0749875600000003  4.8130654399999999 10.1185236100000004
  8.1490402599999996  4.8262741699999996 10.2830990399999997
 -2.0851935699999999  8.3607201100000008 10.0963491600000008
  2.0885944200000002  8.3463104599999998 10.0871305899999992
  6.1990691499999997  8.3540136900000004 10.0930437899999994
  0.0097248200000000  2.4011455300000000  2.5120976399999999
  4.1587520199999997  2.4100606199999999  2.5893480200000001
  8.2644914200000006  2.3863980100000002  2.5322294799999998
 -2.0863524000000000  6.1241477700000004  2.7005780000000001
  2.1281728000000002  5.8967504599999998  2.7062383799999998
  6.2941583000000003  5.9489475000000001  2.4819024299999999
 -4.0561728600000002  9.4692728299999995  2.4566596900000000
 -0.0523208200000000  9.4759120400000008  2.6352680500000001
  4.1273910200000001  9.4890967199999992  2.5335185999999998
  0.1190723600000000  2.3507617199999999  9.1079162199999999
  4.1092741300000002  2.2568358900000001  9.2356756099999995
  8.2850295900000006  2.3913493899999998  9.3210613299999991
 -2.1520095800000001  6.0515816200000003  9.1261404800000001
  2.0675323099999998  5.9955233000000003  9.2665320599999994
  6.1930723399999996  5.9559792500000004  9.2569424700000003
 -4.1923966899999998  9.6010881700000006  9.1819450200000006
  0.1238948600000000  9.4976705799999994  9.2590714100000007
  4.1422326600000003  9.4843078900000002  9.3670012699999994
  2.1367096600000002  1.1619942700000001  5.8978002399999996
  6.2318319100000004  1.2402037900000000  5.8589894600000001
 10.2692530000000009  1.0475675000000000  6.0768749700000004
 -0.0038591200000000  4.6839729600000002  5.9207748400000000
  4.1607549400000003  4.8567732299999999  5.8655043200000003
  8.2209479800000000  4.7106503599999998  5.9297015899999996
 -2.0834363699999998  8.1872734800000000  5.8048723700000000
  2.0284201500000001  8.3635645000000007  5.8794117799999999
  6.1678067700000003  8.2951949400000000  5.8860453899999996
  2.0409337900000000  1.2186283000000000 12.6260828400000005
  6.3284744999999996  1.2151516200000001 12.6376317999999994
 10.3376592699999996  1.1919574500000001 12.6272021100000007
 -0.0250483000000000  4.8169348799999998 12.6041173700000009
  4.0229395500000003  4.8244657699999998 12.5518890400000007
  8.2034798099999993  4.6867746199999996 12.4213414899999997
 -2.0397956100000001  8.4205225600000002 12.6170342499999997
  2.1326543500000001  8.4164143399999993 12.7241567000000000
  6.1048451699999999  8.4507841199999998 12.8275648100000002
