Cd S 
 1.0000000000000000
    12.3977854500000007    0.0000000000000000    0.0000000000000000
    -6.1988927199999999   10.7367971499999992    0.0000000000000000
     0.0000000000000000    0.0000000000000000   13.4479464199999992
 Cd  S  
  36  36
Cartesian
  0.0293808300000000  2.4539350400000002 13.3448346900000008
  4.0559322900000003  2.3451041799999999 13.3968158499999994
  8.2360585799999999  2.2619888000000001  0.0263134600000000
 -2.0569824799999998  5.9660440299999999  0.0000333500000000
  2.1248631499999999  5.9009359799999999  0.0107894200000000
  6.0012949000000004  5.9429796699999997  0.0205234500000000
 -4.1606548900000000  9.5425092700000000  0.0470567900000000
 -0.1924492100000000  9.5361305400000003  0.0375844600000000
  4.1515058299999996  9.5401164699999992 13.2191431900000005
 -0.0586813200000000  2.4172101399999999  6.6719361099999999
  4.0879134900000000  2.3116294200000000  6.9503196300000001
  8.4115873000000008  2.3506410400000002  6.8193592199999999
 -1.9436301400000000  6.1614773600000001  6.6552036399999999
  2.0699657500000002  5.9628866599999997  6.7271660200000003
  6.2682048400000001  5.9484324600000003  6.7780695900000003
 -4.1939196299999999  9.4211984999999991  6.7179514899999999
 -0.1530890300000000  9.5665426300000007  6.8414992500000000
  4.1083444199999999  9.6402008200000004  6.7661673499999999
  2.0666905600000001  1.1973741700000000  3.3671019300000000
  6.1919724699999996  1.1549000400000000  3.3483831999999998
 10.3899551700000004  1.2925312900000001  3.3556827500000002
  0.0239618200000000  4.7225606899999999  3.4049537399999998
  4.1495966299999996  4.7776317600000002  3.3632223400000001
  8.2994211900000003  4.7446042999999998  3.3030236799999999
 -1.8836004399999999  8.3936630700000006  3.3296391800000000
  2.0888507399999998  8.3232155100000007  3.3390871700000000
  6.3759234999999999  8.2720338400000006  3.4133978400000000
  2.0750953999999999  1.1996331899999999 10.0860224800000005
  6.2079256300000001  1.1544623000000001 10.0483525000000000
 10.3413142600000008  1.2049693800000001 10.0684419799999993
 -0.0502600000000000  4.7992383800000002 10.0538184200000007
  4.1948191599999998  4.7885738399999997 10.1095744100000005
  8.2881442900000000  4.7505780399999997 10.0254226699999993
 -2.1035135899999999  8.3920991500000000 10.2536869100000008
  2.0651274599999998  8.3468152000000000 10.0702099799999996
  6.3495979800000004  8.4867114800000003 10.0729239100000001
 -0.0080343200000000  2.3929989900000002  2.5289846300000001
  4.1175983100000000  2.4044416200000001  2.5476714899999999
  8.0543374900000000  2.4935835599999998  2.5192616299999999
 -1.9892866000000000  6.0012995900000004  2.5819540700000001
  2.0984567300000001  5.9984190100000001  2.5284831500000000
  6.2762490800000004  5.9415592999999998  2.4908098100000000
 -4.2305594900000001  9.5634104900000008  2.4383605300000002
 -0.0257472800000000  9.6114329600000001  2.4351072000000000
  4.1669859499999999  9.4861743700000005  2.5480376800000002
  0.0472395300000000  2.3875658500000001  9.2193086599999994
  4.1229128700000004  2.4220723000000000  9.2892256100000008
  8.2375941699999995  2.4232881399999999  9.2592713799999995
 -2.1940758900000001  5.8665958399999996  9.3164404800000007
  2.1051374599999999  5.8727300900000001  9.1307716800000005
  6.1283740000000000  6.0210977100000003  9.1561187700000009
 -4.1261364199999999  9.5516101100000004  9.2300367600000008
 -0.0697873200000000  9.5017975900000007  9.2107327699999999
  4.0435896800000002  9.3856150300000003  9.3983236800000007
  2.0655790999999999  1.1840442200000001  6.0956713000000002
  5.9709213800000001  1.2593698300000000  5.8331708799999999
 10.2104777599999998  1.0169355300000000  5.9601129100000003
  0.2149287500000000  4.7525026099999996  5.8837966200000000
  4.0615486699999996  4.5850200599999997  5.9793742700000001
  8.3247486199999994  4.7642925800000002  5.8753683900000002
 -1.9929158600000001  8.3200267799999992  5.8827674500000002
  2.0676598899999998  8.3439687700000000  5.8946453500000002
  6.1232129899999999  8.3639446900000003  5.8685498799999998
  2.0782658800000000  1.1064002100000001 12.6971216200000008
  6.2757409600000003  1.2610687100000000 12.6368311099999993
 10.3560251599999997  1.1828682200000000 12.6095678200000005
  0.1233247400000000  4.7991907100000004 12.6220386399999995
  4.1719305599999998  4.6751278799999998 12.5382725900000001
  8.2274060500000008  4.7462798800000003 12.6467937500000005
 -2.0692200199999999  8.3393377700000002 12.6387239099999995
  2.1614421300000002  8.3108911699999997 12.7001402799999994
  6.2026989099999996  8.3693055699999999 12.5721756700000000
