Cd S 
 1.0000000000000000
    12.3977854500000007    0.0000000000000000    0.0000000000000000
    -6.1988927199999999   10.7367971499999992    0.0000000000000000
     0.0000000000000000    0.0000000000000000   13.4479464199999992
 Cd  S  
  36  36
Cartesian
  0.1002845100000000  2.3353090999999999  0.0859927600000000
  4.1042056100000002  2.2677125899999999  0.1160163800000000
  8.4231488500000005  2.4745380899999998 13.3131957100000005
 -2.1438824599999999  5.9532905400000002 13.4341996600000009
  2.1401415600000000  5.9170448300000000  0.0880555400000000
  6.2340897300000000  5.9219600300000002 13.4138554699999997
 -4.1539267300000002  9.5732893099999998 13.4375623199999996
 -0.0284568200000000  9.5282848399999995  0.0037681100000000
  4.2783468899999999  9.5605555800000008 13.4363400399999993
 -0.1031674900000000  2.3550562199999998  6.6931350500000004
  4.2532114300000003  2.3341492100000001  6.6260142000000002
  8.1972911400000008  2.3115141100000001  6.8287290799999996
 -1.9195693899999999  6.0720917999999999  6.6024632099999998
  2.2177478499999999  5.9316150900000002  6.7655172800000001
  6.0909165099999996  5.9367551199999999  6.5458091700000001
 -3.9704955499999999  9.4455781099999996  6.5793924600000002
  0.0479810500000000  9.6377672099999998  6.6035350199999998
  4.1195534499999997  9.4019848899999996  6.9231965999999998
  2.0143405400000001  1.0190894399999999  3.4650789700000000
  6.1274580500000004  1.2062899000000000  3.4474201999999998
 10.3304696000000007  1.1698902200000001  3.3819756299999999
  0.0178039700000000  4.8605083400000000  3.4216669799999999
  4.1074311999999997  4.5512235199999997  3.3873394800000001
  8.2535298499999996  4.6053825000000002  3.2972219699999998
 -2.0769576600000001  8.3132738800000006  3.4051083900000001
  2.0653330699999999  8.3502575300000004  3.3638257500000002
  6.1561771500000004  8.2885922300000008  3.3352679599999999
  2.1055146599999999  1.1958432100000000 10.0863898800000005
  6.1990935699999996  1.1743131400000000 10.1542771300000005
 10.2894897200000006  1.0913039499999999 10.0906388899999993
 -0.0024633800000000  4.6422718800000000 10.1574859499999999
  4.2111601299999997  4.6491628699999996 10.2654043700000006
  8.2017423800000007  4.8400123300000004  9.9985855499999996
 -2.2390156200000000  8.3810132999999993  9.9761679599999997
  2.2763890700000000  8.4400898400000006 10.1199330900000000
  6.2215722500000004  8.3365936600000001 10.0525516199999991
 -0.0268061800000000  2.4043692600000002  2.5533083300000001
  4.1017527700000000  2.4609434800000001  2.6280599499999999
  8.2011960699999999  2.3367410700000000  2.3768365800000000
 -2.0467239300000002  6.0157216900000003  2.4785318300000001
  2.0668573800000001  5.9649723899999998  2.5330097299999998
  6.2464984899999996  6.0309955300000002  2.5454104900000001
 -4.1085358999999997  9.5783348499999992  2.5471689400000002
  0.0117536000000000  9.5396191399999992  2.5309559600000000
  4.0792398800000003  9.4588545899999996  2.5332571800000001
 -0.0139454600000000  2.3756670099999999  9.2633166599999992
  4.1656398000000001  2.3585155100000001  9.2166988100000005
  8.3170300099999999  2.3238619599999999  9.2547231500000002
 -2.0629869099999998  6.0304992799999999  9.3181872400000003
  2.0617556300000000  5.9661028700000003  9.2576367800000003
  6.1644681099999996  5.8346954200000001  9.2379163099999992
 -4.2089865399999997  9.7395314400000004  9.3738741099999991
  0.1572700700000000  9.4489989699999999  9.2784527200000007
  4.3258428000000002  9.4554947299999998  9.1746667199999994
  2.0804203700000001  1.2210752199999999  5.8848403100000004
  6.2343872100000004  1.2675420399999999  6.0040563599999999
 10.3677885500000002  1.2195672300000000  5.9544446000000004
  0.0021611200000000  4.7947968899999998  5.8795465299999998
  4.1084506699999999  4.6987522700000000  5.8820333299999996
  8.0685955000000007  4.9027884600000000  5.9127671299999998
 -2.0740447400000002  8.2960240299999999  5.8487118699999998
  2.0503719199999999  8.3707753300000007  5.9161222599999999
  5.9979670900000004  8.4246971399999993  5.8629036200000000
  1.9828207200000001  1.1708543899999999 12.6462647100000005
  6.1772111100000000  1.0926812699999999 12.5993971400000007
 10.4075255599999998  1.1898499300000001 12.5248706399999996
 -0.0311857600000000  4.7697864900000004 12.6538385899999994
  4.1545999399999998  4.7875760700000001 12.6366881600000003
  8.2365603200000006  4.7464628400000004 12.6522837399999997
 -1.9010525500000000  8.3079044000000000 12.4755354999999994
  1.9259925000000000  8.4642174600000004 12.7592099799999996
  6.2155496499999998  8.4646507999999994 12.5643906500000000
