Cd S 
 1.0000000000000000
    12.3977854500000007    0.0000000000000000    0.0000000000000000
    -6.1988927199999999   10.7367971499999992    0.0000000000000000
     0.0000000000000000    0.0000000000000000   13.4479464199999992
 Cd  S  
  36  36
Cartesian
  0.0429114000000000  2.3577262499999998 13.3519868499999994
  4.1521180299999996  2.5108573500000002 13.3991945200000000
  8.2904828199999994  2.3314465400000000 13.4122588000000000
 -2.1686244100000001  5.8925701899999998 13.4108875100000002
  1.8901625300000000  5.8684183000000001  0.1184113200000000
  6.1738253399999996  5.9602263999999998  0.0382937000000000
 -4.1059196599999996  9.5484531700000002  0.0088367800000000
  0.0107229700000000  9.5392150099999995  0.0510781200000000
  3.9554026800000002  9.5291905999999997 13.3958396600000000
 -0.0963480900000000  2.3128674800000000  6.7949338499999996
  4.1139405299999998  2.4450485099999999  6.5768081599999997
  8.2832071799999998  2.4314486400000002  6.5923039599999997
 -2.1621448299999999  5.8900938600000003  6.6616411700000002
  2.0849321700000001  5.9851409300000000  6.7250390900000001
  6.1195893600000000  5.8387545699999999  6.8059403300000003
 -4.1340660400000004  9.5440786699999993  6.7292817899999999
  0.1222475600000000  9.5524271800000005  6.7818530399999997
  4.2525411499999999  9.4123690900000003  6.6565008299999997
  2.0870549800000000  1.1882675400000000  3.4666554700000001
  6.3536905399999997  1.2060026900000000  3.4268074500000001
 10.4242193600000004  1.2578100999999999  3.3675566099999998
 -0.1191503400000000  4.6469853399999996  3.1854411599999999
  4.1996272100000001  4.9370876900000003  3.3129424799999998
  8.1498639100000005  4.9428325199999996  3.3789389500000002
 -2.0384474099999998  8.3383891800000001  3.3672903399999998
  2.0662973700000000  8.2772694199999997  3.4162969400000001
  6.2397632099999996  8.3462978999999997  3.4293263899999999
  1.9804140699999999  1.0769200800000001  9.9733578699999992
  6.1768094800000002  1.2362353600000000 10.0436878099999998
 10.2438098899999996  1.2515393800000001  9.9693030500000006
  0.0862818300000000  4.7901841500000000  9.9115840599999991
  4.1203246499999997  4.7703523199999998  9.9844462400000005
  8.2272053900000000  4.7643817999999998 10.0895988299999999
 -2.0918718300000001  8.3811497599999996 10.0225078300000003
  1.8619578800000001  8.3607837699999994 10.2303895499999999
  6.2039557399999996  8.3510696600000003 10.0913822999999994
  0.0152983700000000  2.3230411300000000  2.7529498200000000
  3.9274364300000002  2.4274650699999998  2.4452800400000001
  8.2809509699999992  2.5029502300000002  2.5347579699999998
 -2.1506422900000000  5.9621845799999997  2.6154956700000001
  2.0288550700000001  5.9764987700000001  2.6297281699999999
  6.1303490299999996  5.9214530400000003  2.6680792900000001
 -4.2231156099999998  9.6086798299999998  2.5037066600000002
 -0.0189878900000000  9.5926498000000002  2.5429401000000000
  4.0247807499999997  9.5367730300000009  2.7199551500000001
  0.0078866700000000  2.3820785899999999  9.2342481099999993
  4.1390247899999997  2.3843590899999998  9.2583097199999997
  8.4742395699999999  2.4032020599999999  9.1361924099999996
 -2.0425087999999998  5.9504396000000002  9.3129222299999999
  1.9695616000000000  5.9889977999999999  9.3421567200000002
  6.2003078100000000  5.7829780900000003  9.1709019699999992
 -4.1390772199999999  9.5465292399999999  9.2565673999999998
 -0.0004793600000000  9.5434655999999993  9.2572169399999993
  4.1035151799999996  9.5192586299999995  9.2454907300000002
  2.0783510500000002  1.1077491800000001  5.8043469600000002
  6.1490713599999998  1.2039690300000001  5.9380090599999997
 10.3346244699999996  1.1969989200000000  5.8992421200000003
 -0.0077350400000000  4.7808553700000003  5.9181066299999996
  3.9778372700000002  4.6409749800000002  5.9325581999999999
  8.2738748700000002  4.7271319800000002  5.9007410299999998
 -2.0638776900000000  8.3232104600000003  5.9069783200000003
  2.0814147400000000  8.5228139600000006  5.7740256099999998
  6.2236487499999997  8.3309293600000007  5.7734644199999998
  2.0567879599999999  1.1247128900000001 12.6843042399999995
  6.1462547699999996  1.1286670400000001 12.4332386199999991
 10.2301031499999997  1.2079999500000000 12.6911973899999992
  0.1973429900000000  4.7178835200000000 12.6457944399999995
  4.1630673800000002  4.7869758899999999 12.5077008400000000
  8.3248978900000008  4.5740788300000004 12.6872759700000000
 -1.8603208700000000  8.4313586699999998 12.5114440699999996
  2.0397348100000001  8.4571424499999992 12.6358815500000006
  6.1045884199999998  8.3836866499999996 12.4621790000000008
