k-path for hexagonal wurtzite (supercell)
40                             # Number of points between each high-symmetry point
Line-mode
Reciprocal
0.0000 0.0000 0.0000   ! Gamma
0.5000 0.0000 0.0000   ! M

0.5000 0.0000 0.0000   ! M
0.3333 0.3333 0.0000   ! K

0.3333 0.3333 0.0000   ! K
0.0000 0.0000 0.0000   ! Gamma

0.0000 0.0000 0.0000   ! Gamma
0.0000 0.0000 0.5000   ! A

0.0000 0.0000 0.5000   ! A
0.5000 0.0000 0.5000   ! L

0.5000 0.0000 0.5000   ! L
0.3333 0.3333 0.5000   ! H

0.3333 0.3333 0.5000   ! H
0.0000 0.0000 0.5000   ! A

