Cd S 
 1.0000000000000000
    12.3977854500000007    0.0000000000000000    0.0000000000000000
    -6.1988927199999999   10.7367971499999992    0.0000000000000000
     0.0000000000000000    0.0000000000000000   13.4479464199999992
 Cd  S  
  36  36
Cartesian
  0.0699613900000000  2.4287035600000002  0.1398723600000000
  4.0802090099999999  2.2596895199999998 13.4154962599999994
  8.2681172099999998  2.4112151499999999 13.4335645100000001
 -2.1309536800000002  5.7833337000000000  0.0198329000000000
  2.0718093000000000  6.0618155099999997  0.0501156600000000
  6.3909523999999998  5.9538327500000001 13.4214078400000005
 -4.1069217099999999  9.4317973300000002  0.1241221200000000
 -0.1261916600000000  9.5816840899999995  0.0149678300000000
  4.1311779199999998  9.5439078500000001  0.0004970400000000
 -0.0087084500000000  2.3772888000000001  6.7086192899999997
  4.3282780399999998  2.4014783700000000  6.7237818499999999
  8.3240227299999994  2.4628379900000001  6.7030736199999996
 -2.0576273500000002  5.9702398600000004  6.5466883899999999
  2.0528529600000001  5.9936958999999996  6.6135392099999999
  6.0873028600000003  6.0158326000000004  6.8209758000000003
 -4.3008100499999999  9.6107636299999992  6.6575279800000002
  0.0386779300000000  9.5407637899999997  6.7352555000000001
  4.0777497299999999  9.5588260900000002  6.7272245200000000
  2.0731023300000002  1.1991618399999999  3.3529389599999999
  6.2377166400000004  1.1655789700000001  3.2455561700000000
 10.3218694499999994  1.1768877099999999  3.2606672200000002
  0.1877383000000000  4.7967927499999998  3.2196061999999999
  4.1022106200000001  4.6229330900000001  3.1696766699999999
  8.3544638199999994  4.7937510200000002  3.2527387200000000
 -1.9326481200000001  8.1895025500000003  3.4983901999999998
  2.0938598200000000  8.3464651799999992  3.3845115099999998
  6.0971082100000000  8.3518026600000006  3.3336403500000000
  2.0646618499999998  1.1797296399999999 10.0825093399999997
  6.1865839600000001  1.1811896300000000 10.0730549000000007
 10.3203388799999995  1.2098547300000000 10.1066731500000007
 -0.0206224100000000  4.7723735200000004 10.0965682300000008
  4.1326607600000003  4.7741873899999998 10.0878731899999998
  8.2840253700000002  4.7778589499999997 10.0936970899999992
 -2.0663516700000000  8.3595966100000005 10.0920696200000002
  2.0997730699999999  8.3292691300000001 10.0592179000000002
  6.3623770600000000  8.2782156600000008 10.0343421599999996
 -0.0159110100000000  2.4366346200000000  2.5137446099999998
  4.1043277299999996  2.3615425399999999  2.5331458300000000
  8.2354022499999999  2.4366792899999998  2.7040392400000002
 -2.0739210099999998  5.7993199300000002  2.6549867800000002
  2.0337759300000000  5.9154685599999999  2.5254753900000000
  6.1733640100000002  5.9478404300000003  2.5207119900000001
 -4.1546074300000004  9.4851628600000009  2.6459753099999999
  0.2206197700000000  9.5273013500000001  2.4824763900000000
  4.1357397499999999  9.5340533000000001  2.5060471400000002
  0.0949902200000000  2.4757025000000001  9.2787520800000003
  4.2524926699999996  2.2466403399999999  9.1869916299999996
  8.3370701000000000  2.4444620700000002  9.2206538499999997
 -1.9875269799999999  5.9754069500000000  9.2585219300000006
  2.1712191500000002  6.1624554800000002  9.3119036800000003
  6.3182698300000002  5.8443688500000004  9.2228285200000002
 -4.0603692000000002  9.4053608600000000  9.0737721600000008
 -0.0109511500000000  9.6971826100000005  9.2504699699999993
  4.1166321600000000  9.7118735500000000  9.0872433699999995
  2.0022096800000000  1.0514108499999999  5.8905928100000002
  6.0676219400000004  1.1049015700000000  5.9162829600000002
 10.3557196200000003  1.0153674200000000  5.7901226599999998
  0.0506890900000000  4.8243455199999996  5.7194377000000003
  4.1351084499999997  4.8047767400000003  5.9521686699999998
  8.0847752899999996  4.7772880700000000  6.0379262200000001
 -1.9672822000000001  8.3366544299999994  6.0699535800000000
  2.0303286699999998  8.2297051999999997  5.9656453899999997
  6.1979865700000003  8.3532902399999998  5.8970904500000003
  2.1465600700000000  1.2326189900000000 12.5763421100000006
  6.2239198299999998  1.1567639500000000 12.5567578700000002
 10.4002015700000001  1.0801561500000001 12.5915245799999997
 -0.0033831100000000  4.6780302499999999 12.4577441400000009
  4.2025274200000000  4.7694278800000003 12.6059165699999998
  8.2582494400000002  4.7458986200000002 12.4780089800000002
 -1.9029532600000001  8.4595803499999995 12.7102423699999996
  2.0935672900000002  8.3735583099999999 12.6541559699999997
  6.1940231299999997  8.3775472400000002 12.6655502799999997
