Cd S 
 1.0000000000000000
    12.3977854500000007    0.0000000000000000    0.0000000000000000
    -6.1988927199999999   10.7367971499999992    0.0000000000000000
     0.0000000000000000    0.0000000000000000   13.4479464199999992
 Cd  S  
  36  36
Cartesian
 -0.0554923000000000  2.3694583499999999 13.3326976500000001
  4.0779517500000004  2.4923376600000000  0.0925249600000000
  8.2295967300000008  2.4084859600000001  0.1093073300000000
 -2.0366990199999999  5.8102106899999999 13.2835429900000008
  1.9450051200000000  5.9907834299999996  0.1195440400000000
  6.1243016399999997  6.0666875400000002  0.0684518000000000
 -4.1267442799999996  9.5352233900000005  0.0009402800000000
 -0.0936812600000000  9.5743252000000005  0.1933271400000000
  4.1327706700000002  9.5444861299999992  0.0017514600000000
  0.0496246800000000  2.4214553699999999  6.5367794100000003
  4.1198310300000003  2.4187821199999999  6.6925391699999999
  8.2677195500000007  2.3763185199999999  6.7227877700000001
 -2.0769709299999999  5.9856388999999997  6.6469373200000001
  1.9600024800000000  5.9701075799999996  6.7632026200000004
  6.0266124200000002  6.0255196599999996  6.8699393700000000
 -4.1895333600000004  9.6134587800000002  6.6986696900000000
 -0.1241522900000000  9.5747636899999993  6.7903088399999998
  4.1464536699999996  9.5414243200000008  6.7245700299999998
  2.0850554699999999  1.2579996000000000  3.4042689699999999
  6.2385000499999999  1.3308064700000000  3.2545552600000001
 10.3548472500000006  1.1801099300000000  3.3325571200000002
 -0.0117783300000000  4.7603377800000004  3.2829163100000001
  4.0598943700000003  4.7988091199999996  3.3414720299999998
  8.1671388599999997  4.7874012800000001  3.2616630400000002
 -2.0712778599999999  8.1842817799999992  3.4841573000000001
  2.1455080000000000  8.3717393900000001  3.3391148799999999
  6.1892310100000003  8.4077328900000001  3.4033820700000001
  2.1142369400000001  1.2483831900000000 10.0957756100000005
  6.1740754600000001  1.1503415200000000 10.0636924400000005
 10.2896314800000006  1.1728124600000001 10.0739152999999995
 -0.0161450100000000  4.7960703799999997 10.0268809700000006
  4.0558023600000004  4.7896849899999996 10.1377787900000005
  8.3340163399999998  4.6336777199999997 10.0181553999999995
 -2.2228615000000000  8.3681578099999996 10.1547417600000003
  1.9623792000000000  8.4031997100000009 10.1635972300000006
  6.0833903700000000  8.4678048399999994  9.9633228799999998
  0.0792326400000000  2.2899419499999998  2.5704980399999999
  4.1404617500000001  2.2011228699999998  2.5411807099999999
  8.2608720699999996  2.3962401099999999  2.5461111299999999
 -1.8764746200000000  5.8247141700000000  2.5605994100000000
  2.0180543000000002  6.0246918500000000  2.4620473399999998
  6.1972166700000004  5.9655120200000002  2.5348690500000002
 -4.1630310499999998  9.5124851100000001  2.5266905400000002
  0.0509980500000000  9.5854184599999996  2.4290136699999998
  4.1075305699999998  9.5701542699999997  2.5682398599999998
  0.0157475400000000  2.3798853900000001  9.2560582599999996
  4.1248969500000001  2.3849031200000002  9.2638606299999999
  8.3736727000000002  2.3148169599999999  9.4531993700000001
 -2.0949435599999999  5.8709081699999999  9.1578144199999993
  2.0637720000000002  5.9658222099999998  9.2660889500000003
  6.3357238599999999  6.0695479299999997  9.3336616499999998
 -4.1822837499999999  9.4856750099999996  9.2478060600000003
  0.0499593000000000  9.4743045200000005  9.3335914599999992
  4.1663362399999997  9.4320193600000000  9.3873295799999994
  1.9110154800000001  1.2683640500000000  5.8173734499999998
  6.2089367900000001  1.1708700599999999  5.8566764200000003
 10.1372112500000000  1.0915598099999999  5.8246284800000003
  0.0210444400000000  4.8470339899999999  5.9684096200000001
  4.1406785900000003  4.7807028000000003  6.0159860299999997
  8.2606848599999996  4.7619808399999997  5.9022076700000001
 -2.0839743099999999  8.2557186300000005  5.8024612900000001
  1.9813246900000001  8.5035534399999992  6.0719016500000000
  6.1161624899999998  8.2591775999999992  5.9176867900000003
  2.0679290400000001  1.1997206899999999 12.6195226599999994
  6.3443182499999997  1.0635276400000000 12.6154030200000005
 10.3511274800000006  1.1430743200000000 12.6328606000000008
  0.1106864400000000  4.7753627500000002 12.7950222599999996
  4.0268625800000004  4.7909403399999997 12.5553073699999995
  8.2216759800000005  4.7669597000000001 12.5834922500000008
 -1.9362606499999999  8.3767818199999997 12.8183150500000007
  2.0222462999999999  8.4786082100000009 12.5246250799999999
  6.1268158499999998  8.3298629799999997 12.4792193000000005
