Cd S 
 1.0000000000000000
    12.3977854500000007    0.0000000000000000    0.0000000000000000
    -6.1988927199999999   10.7367971499999992    0.0000000000000000
     0.0000000000000000    0.0000000000000000   13.4479464199999992
 Cd  S  
  36  36
Cartesian
 -0.0310531000000000  2.3097713099999999 13.3182866999999998
  4.0006090299999997  2.2980392100000002  0.0243928300000000
  8.3037419999999997  2.4769209100000000  0.0701949200000000
 -2.0619924799999998  5.9419473299999996 13.4407575500000007
  2.0266185700000001  5.8524530099999996  0.2033571600000000
  6.1418577100000000  5.9278436900000004  0.2170768900000000
 -4.0090861999999996  9.4397223700000001 13.3727438900000006
 -0.1039892100000000  9.4918239700000004  0.2191266200000000
  4.0715608799999998  9.4890336899999994  0.0004428400000000
 -0.0422982700000000  2.3166744300000000  6.7540289700000002
  4.1226773200000002  2.3787061600000001  6.7205056599999997
  8.2873203300000000  2.3519462000000000  6.7382241299999999
 -1.9074713800000000  5.9047650500000000  6.8750349300000000
  2.0126010700000001  5.9310194200000002  6.8164763900000001
  6.2994013899999999  6.1184870099999999  6.7282854299999997
 -4.1901657700000001  9.6358570300000004  6.8651705999999999
  0.0932958200000000  9.4911444399999993  6.7411434100000003
  4.1351795600000001  9.5516696999999997  6.7150487500000002
  1.9863294199999999  1.1528502800000000  3.3290780000000000
  6.2068107000000001  1.2826663199999999  3.3180379100000001
 10.2730528600000000  1.2655379099999999  3.3146759200000000
  0.1246280600000000  4.8911377399999996  3.2690681499999998
  4.1506979900000003  4.8457512600000001  3.4332475400000000
  8.2185005899999997  4.7904076900000003  3.3595429800000001
 -2.1998184799999998  8.4194444799999992  3.3769473099999998
  2.2619823399999999  8.2468068700000003  3.4277749000000002
  6.2146566999999999  8.3786298299999995  3.3715579099999999
  2.0569499300000000  1.1641572000000000 10.0803104700000006
  6.1179214899999996  1.2809938500000000 10.1464622599999998
 10.2660512100000005  1.2778240199999999 10.0291800299999991
 -0.0109605700000000  4.7620893899999999 10.0846119299999994
  4.1279780500000003  4.7721926000000003 10.0893665800000001
  8.2762535699999997  4.6699766800000004 10.0618619000000002
 -2.0660336600000000  8.3745742199999995 10.0743830200000009
  1.9750580400000000  8.3920394500000004 10.1446646699999992
  6.0301128100000003  8.3128012400000006 10.0080957999999995
  0.1747053800000000  2.5523589300000000  2.4942475100000001
  4.0328861099999997  2.3028217000000000  2.4931453100000001
  8.2697060499999999  2.3774177500000002  2.5126190199999998
 -2.1189384200000001  5.9356546000000003  2.3902531900000001
  2.2857428799999999  5.9591466000000004  2.4300121799999999
  6.1960461300000000  5.9442779600000000  2.5142060100000001
 -3.9548005700000002  9.5875183600000007  2.6242285000000001
  0.1207381900000000  9.4995852799999998  2.6064925400000001
  4.1251716900000002  9.5283704199999999  2.5578805000000000
  0.0153094100000000  2.4298044100000000  9.1083656499999996
  4.0328018600000002  2.5730027899999999  9.2015783500000001
  8.2341362500000006  2.3271986299999998  9.4979276499999994
 -2.0732266099999999  6.0267149800000004  9.3043645000000001
  2.0118826799999998  5.9185992000000001  9.1717760800000008
  6.0960486300000003  5.9463487700000002  9.2190402400000000
 -4.0813317500000004  9.4534280000000006  9.2259823300000008
  0.0258762900000000  9.7348802499999998  9.2804006599999997
  4.1358328599999998  9.5445693400000007  9.2600794700000009
  2.0564410099999999  1.2420616799999999  5.9084553099999999
  6.0371359699999996  1.2774909699999999  5.8051964700000003
 10.3386205899999997  1.2476316100000000  5.8058360499999999
  0.0946771800000000  4.8161741800000000  5.9689601799999998
  4.1957113699999997  4.7709295300000001  5.8332430999999998
  8.2652111099999992  4.7720741799999997  5.8965236200000000
 -2.0028756900000002  8.5276091199999993  5.8447788799999998
  2.0702781200000002  8.2662220099999999  5.9325202800000003
  6.1504938800000000  8.1680029699999999  5.7629381799999999
  2.2963736699999999  1.1478429600000000 12.6143928100000000
  6.1865997000000004  1.1909581800000000 12.6237404800000004
 10.2339784500000004  0.9859898200000000 12.6706233800000003
 -0.1195303300000000  4.6656452499999999 12.6748488600000009
  4.1554976600000000  4.7850001000000004 12.6308797199999994
  8.2700883399999991  4.7663593000000004 12.5998788400000006
 -1.9811056100000000  8.4649647399999992 12.7270962799999996
  2.0836262500000000  8.3411018299999995 12.6170354600000003
  6.1939169999999999  8.5039863400000009 12.4994827999999991
