Cd S 
 1.0000000000000000
    12.3977854500000007    0.0000000000000000    0.0000000000000000
    -6.1988927199999999   10.7367971499999992    0.0000000000000000
     0.0000000000000000    0.0000000000000000   13.4479464199999992
 Cd  S  
  36  36
Cartesian
  0.0743816300000000  2.3817256699999998 13.3762946899999999
  4.0481924100000004  2.3082412099999998 13.4067051999999993
  8.1999580900000009  2.3708506900000001  0.2171188400000000
 -1.9686838400000000  5.9665224600000002 13.4083964099999999
  2.1166663500000000  5.9981134500000000  0.0798767700000000
  6.2409811599999996  6.0968845700000003 13.4195247200000001
 -4.1811106799999997  9.4340604300000006 13.4353124800000003
  0.1060945500000000  9.6376497499999996 13.3005906800000009
  4.1516489600000002  9.5532807500000008 13.4287341500000004
  0.1108990000000000  2.3691167000000002  6.6877358400000002
  4.1400373799999999  2.3719944900000001  6.7287591999999998
  8.2581907999999995  2.3925623200000001  6.7280512999999997
 -2.0030834099999999  5.9148077099999998  6.5658467399999996
  2.2315472100000000  5.8339265600000001  6.6940996699999999
  6.2840378000000001  5.9931819300000004  6.7111153600000000
 -4.0906763300000000  9.4156211600000006  6.8831093499999998
 -0.0328995000000000  9.5627651000000000  6.7559178700000002
  4.1373645400000001  9.6592322199999998  6.7612525300000001
  2.0741878200000001  1.1548857600000000  3.3703548600000000
  6.2348130800000003  1.1541621000000000  3.3730903099999998
 10.4514728600000009  1.0604687300000000  3.2242128000000001
  0.0815309400000000  4.7118346300000002  3.2986073700000000
  4.0842080400000000  4.7932206199999996  3.1632311999999998
  8.2438084400000005  4.8226449200000001  3.4083617099999999
 -2.0412250099999998  8.3607698199999998  3.2778155000000000
  2.0642944499999998  8.3306198200000008  3.3589725200000000
  6.1484915200000003  8.3040538700000006  3.3790079400000002
  1.9156611100000001  1.0852506500000001  9.9634699999999992
  6.2740141300000003  0.9970718100000000 10.1267880500000000
 10.3283427000000003  1.2094346000000000 10.0685685300000003
  0.0345011200000000  4.7446691500000000 10.2029155300000003
  4.1360049400000003  4.8525273599999998 10.1643582499999994
  8.2852367600000001  4.8274876500000001 10.0695257500000004
 -2.0998566200000002  8.3207211300000008 10.0362913000000002
  2.0428902299999998  8.4673878200000008  9.9816321299999995
  6.1636933100000002  8.4262109200000008 10.1111037100000001
  0.0599026300000000  2.3149698500000002  2.3382002300000000
  4.1569055600000002  2.3453994400000000  2.7045380200000002
  8.3054212799999991  2.3780678599999998  2.5547861300000001
 -2.0372499700000000  5.9424983400000002  2.5652515899999999
  1.9377987299999999  5.9702519900000004  2.4118711700000000
  6.1539958800000001  5.9682088899999997  2.5353433600000002
 -4.0745602600000002  9.5365158900000004  2.5766331199999999
  0.1500549300000000  9.6667223100000008  2.5039635100000002
  4.1391301699999996  9.5323970399999993  2.5762821300000001
 -0.0043666800000000  2.4215416900000002  9.3766660399999999
  4.1305144499999997  2.3975282000000000  9.2584740500000002
  8.1849773500000005  2.3636179600000000  9.1683207699999993
 -2.0776152400000001  6.0151769000000002  9.2072598299999999
  2.0898146099999999  5.9701934799999998  9.2431065500000003
  6.0899169400000002  6.0815222499999999  9.3909096999999999
 -4.1854899500000000  9.4758613599999997  9.1788646299999996
 -0.0410433000000000  9.4186204900000003  9.1826713400000006
  3.9744006700000001  9.5595778800000009  9.3308833100000008
  2.0704593700000000  1.1261552699999999  5.9872433300000001
  6.0621561899999996  1.1837142800000000  5.8916128399999996
 10.3210776000000006  1.2303835900000000  5.8828533800000002
  0.0816414700000000  4.8219944899999998  5.8257425100000004
  4.3086375900000000  4.6253308300000002  5.9791722800000002
  8.2513922300000004  4.7681108999999999  5.8971396699999996
 -2.0103566300000000  8.3686001599999997  5.9359161499999997
  2.1087281700000000  8.1529160500000000  5.9459984800000001
  6.2789572600000003  8.3982858000000000  5.9301620499999999
  2.1154695900000000  1.2488127700000000 12.7658363200000000
  6.1680834200000003  1.0942092200000000 12.5673383100000002
 10.2195203299999999  1.2152720900000000 12.7598392100000009
 -0.1271446200000000  4.7854184100000001 12.7111242900000008
  4.1202621700000002  4.7379085099999996 12.6258366100000003
  8.3643302300000002  4.5711746399999997 12.6238720000000004
 -1.8662881099999999  8.2076921899999995 12.6463279199999992
  2.2439920999999998  8.3364384099999995 12.6845207599999998
  6.0736160200000002  8.2761206900000008 12.5523110399999993
