Cd S 
 1.0000000000000000
    12.3977854500000007    0.0000000000000000    0.0000000000000000
    -6.1988927199999999   10.7367971499999992    0.0000000000000000
     0.0000000000000000    0.0000000000000000   13.4479464199999992
 Cd  S  
  36  36
Cartesian
  0.1336247000000000  2.3738083600000000 13.3834906799999995
  4.1496824200000004  2.3288333099999998 13.3319459100000000
  8.1290450500000002  2.2815741200000001 13.3773320600000005
 -2.1686863399999998  5.9344500399999998 13.4322689400000002
  2.0881215000000002  5.8119823700000000 13.4413788499999995
  6.2028127199999998  5.9786496700000002  0.0009884200000000
 -4.1292369799999999  9.5870247899999992 13.4054874900000005
  0.0033766000000000  9.6129041199999996  0.0000641500000000
  4.2431974900000000  9.4118684399999992  0.0054708900000000
 -0.0390219700000000  2.2242081599999999  6.7753319899999997
  4.2487841800000004  2.3266139099999998  6.7490918200000003
  8.1871975500000005  2.4320208000000001  6.8048889700000004
 -1.9691809899999999  5.9594683799999997  6.7175106600000003
  2.0517755400000000  5.9966494800000003  6.7523887199999999
  6.1214654599999996  5.9601410399999999  6.6722992100000003
 -4.1814415699999996  9.6002943900000002  6.6604443000000000
 -0.0706589400000000  9.4308291900000008  6.8238505700000003
  4.1197713399999998  9.5699866700000005  6.7064880599999999
  2.2031433800000002  1.2780911500000001  3.4354832599999998
  6.1816921000000002  1.2688825300000000  3.4131647799999998
 10.4146535399999998  1.1234868600000001  3.2166381099999999
 -0.0478443500000000  4.9413668399999997  3.3025094300000002
  4.1178249500000002  4.8261562800000002  3.3805675000000002
  8.2456438100000007  4.7214267699999999  3.3789183800000000
 -2.0956163299999999  8.3160688799999996  3.3206793499999998
  2.0695185600000001  8.2914866600000003  3.4223703099999998
  6.0459928200000004  8.4297435400000005  3.4054859999999998
  2.0627859399999999  1.1747554899999999 10.0783185599999996
  6.2134593799999998  1.1655128299999999 10.2484756899999994
 10.3663689399999992  1.1732395700000000 10.0984708399999992
 -0.0726097400000000  4.7496414600000003 10.0439301400000005
  3.9541420700000001  4.7450923899999999 10.0668147799999996
  8.2335791500000006  4.8975445999999998  9.9531020399999992
 -2.0550072600000000  8.4045896899999999 10.0490628199999996
  1.9547124700000000  8.3973847599999996 10.1986160899999998
  6.1688824599999998  8.2874039899999996  9.9720645799999996
 -0.1129577100000000  2.3653859900000000  2.4106320800000001
  4.3448836899999996  2.3266138000000001  2.6496858599999999
  8.3318153000000006  2.3209214700000000  2.5318511899999998
 -2.0300443200000000  6.0385854800000001  2.5344711200000001
  2.0944739999999999  5.9690149000000003  2.4659044799999998
  6.0500833500000004  5.8770322200000003  2.5282975699999999
 -3.9886011500000000  9.6868953599999994  2.6010055099999998
 -0.0020608200000000  9.5401049800000006  2.5363633800000001
  4.2504651999999998  9.4393016000000003  2.5291218000000000
 -0.0767631200000000  2.4952346599999999  9.1753372300000002
  4.1270658200000003  2.3759263000000002  9.2968838100000006
  8.2652928699999997  2.2629631699999999  9.3309990999999997
 -1.9663420199999999  5.9668159999999997  9.2061246899999993
  2.0872380399999999  5.9731468500000000  9.2676674699999992
  6.2308668599999999  6.0718565599999996  9.3376825900000000
 -4.0560615899999997  9.4077240300000007  9.3193290999999991
  0.1379726000000000  9.7116857700000008  9.1827485299999996
  3.9625052500000000  9.4124998699999995  9.3478620100000001
  2.0656056299999999  1.1694219900000000  5.9020914800000002
  6.0039421400000004  1.1326563000000001  5.9305652200000001
 10.2645221299999996  1.1609852300000001  5.8798856900000001
  0.0355178000000000  4.6124591300000004  6.0378994600000002
  3.9969041399999998  4.7720625800000001  5.8999687200000004
  8.2825951000000000  4.7413290400000001  5.8798150900000001
 -2.0852476900000001  8.3247339000000000  5.9021612699999997
  2.1215810799999999  8.3729871100000004  5.8299716200000002
  6.0247138900000001  8.3691968100000000  5.7948981599999998
  2.0660799100000000  1.2050618200000001 12.6195849300000003
  6.1901191799999999  1.2317111999999999 12.5723674400000007
 10.1687842600000007  1.1056139599999999 12.7145750300000007
 -0.0859302300000000  4.7868727000000000 12.5819624099999992
  4.1272419300000003  4.7640194300000003 12.6257735400000008
  8.2616182899999995  5.0085118700000004 12.6863776500000007
 -2.1035907100000002  8.5599676799999997 12.6640741000000006
  2.0959304400000001  8.3312048599999997 12.6273797600000002
  6.1149992700000002  8.2748070499999997 12.6231723000000002
