Cd S 
 1.0000000000000000
    12.3977854500000007    0.0000000000000000    0.0000000000000000
    -6.1988927199999999   10.7367971499999992    0.0000000000000000
     0.0000000000000000    0.0000000000000000   13.4479464199999992
 Cd  S  
  36  36
Cartesian
  0.1081406100000000  2.3538275000000000  0.2020024100000000
  4.1325997599999997  2.3853436499999998 13.4453112899999994
  8.2494408799999999  2.5312440600000001 13.3706539400000004
 -1.9119603100000000  5.9096843300000002 13.4184324799999999
  1.9658422700000000  6.1130511800000003  0.0855203300000000
  6.1714517200000003  5.9417783300000000 13.4282761100000005
 -4.1600578099999996  9.4134909800000006  0.1015334700000000
 -0.1681456400000000  9.6137151799999998 13.2836489600000007
  4.0792369700000002  9.5041822400000004  0.0477492200000000
  0.0832296200000000  2.3718756299999999  6.5747314000000001
  4.3363897800000002  2.2718418599999999  6.7326741700000001
  8.2720263000000003  2.3294382200000001  6.6627550600000003
 -1.9913314300000000  6.0979744599999997  6.7968157600000003
  2.2102172499999999  6.0248232699999997  6.5329381399999997
  6.2217855499999999  5.9383849700000004  6.7766156000000004
 -4.2156532000000002  9.6466031700000006  6.7372386700000000
 -0.0305796900000000  9.5520964799999994  6.6718278599999996
  4.1949315499999997  9.5295529699999992  6.7844848000000004
  2.1030242000000001  1.1780652199999999  3.5591152099999999
  6.1895692200000001  1.2955766700000000  3.5082285799999999
 10.2622236999999998  1.1156583400000000  3.3478015800000001
 -0.0044889300000000  4.7526796600000001  3.3917405899999999
  4.1264338499999997  4.7634810900000000  3.3679028899999999
  8.2476844800000002  4.6679920900000003  3.2621501300000002
 -2.0521725700000002  8.1614288300000002  3.2793500500000001
  2.2296819600000002  8.4240418699999999  3.3264075100000001
  6.1121969399999996  8.4166108200000007  3.3948556700000001
  2.0193436100000000  1.2274246400000000 10.0035711099999993
  6.3397295800000002  1.1969892499999999  9.8913559299999996
 10.4070385699999992  1.0455576799999999 10.2567780499999994
 -0.0424193300000000  4.7910735799999999  9.9314669799999997
  4.1573881400000001  4.7439497800000003 10.0492145100000005
  8.4332926599999993  4.7970461400000000 10.2235192599999998
 -1.9614963999999999  8.1710024000000008 10.1668917099999998
  2.1044474700000002  8.3904788600000000 10.2315178299999996
  6.2985981999999998  8.3680636400000008 10.0836904700000005
  0.0207591600000000  2.4107061100000000  2.5299495200000002
  4.1440198600000002  2.4227867299999999  2.4967439800000002
  8.2670824300000003  2.3923811900000000  2.5410623600000002
 -2.0799052400000000  6.1607442499999996  2.5255030900000000
  2.0217613000000001  5.8777264599999999  2.6070351600000001
  6.1669029100000001  5.9756558200000001  2.5058592700000002
 -4.1684889900000002  9.5171540100000005  2.5268871499999999
 -0.0384512900000000  9.5048109800000002  2.5381971399999999
  4.1440936900000001  9.5535419800000003  2.5550747199999999
 -0.0677222800000000  2.4085968699999998  9.2995545699999997
  4.1497572399999996  2.4015692099999999  9.2697973600000001
  8.2652419199999994  2.3860730000000001  9.2572442400000003
 -2.0206766799999998  6.0691127700000003  9.3840462700000007
  1.9559728900000000  6.0054055599999998  9.4307902499999994
  6.3473754900000001  6.0890531499999998  9.3970594399999996
 -4.1494134400000000  9.5479049400000005  9.2441530600000004
  0.0631010800000000  9.6122725800000008  9.2302395500000003
  4.0983496400000003  9.5525435600000002  9.3079318299999994
  2.2091266799999998  1.1934667299999999  5.9160870200000000
  6.1840546800000000  1.1574396199999999  5.8977383699999999
 10.1363388200000006  1.2151427100000001  6.0316855699999996
 -0.0057382500000000  4.7579353199999996  6.0057755500000001
  4.2781351900000004  4.7934611299999998  5.9511957100000004
  8.2824825900000008  4.7830259200000000  5.8746473100000003
 -2.2538344499999998  8.2363261500000000  5.9436815400000000
  2.1299436400000000  8.3820639999999997  5.9343391099999998
  6.2256591099999996  8.3625332300000004  5.8964141600000000
  2.1425390400000000  1.2144251699999999 12.6693888599999998
  6.2002394399999998  1.2793796799999999 12.6026819299999993
 10.3277256000000008  1.1901580700000001 12.6157822500000005
  0.0745379100000000  4.8220586900000004 12.7791438700000004
  4.1390963899999997  4.7311673000000001 12.6632434200000006
  8.2636877900000005  4.8189355699999998 12.5835015299999995
 -2.0915615700000001  8.4170341799999999 12.5613679600000001
  2.1307303399999999  8.2228084199999998 12.5184769399999993
  6.2050114699999996  8.3027960499999995 12.6388083600000005
