Cd S 
 1.0000000000000000
    12.3977854500000007    0.0000000000000000    0.0000000000000000
    -6.1988927199999999   10.7367971499999992    0.0000000000000000
     0.0000000000000000    0.0000000000000000   13.4479464199999992
 Cd  S  
  36  36
Cartesian
  0.0518835600000000  2.2330110500000000 13.4193217899999997
  4.1175647800000004  2.4037612300000002 13.4412267500000002
  8.2767443299999996  2.3906698600000000  0.0084259500000000
 -2.1411842700000001  6.1069473099999998 13.3868527999999998
  2.0953539999999999  5.9790662599999997 13.4467330100000009
  6.2049008199999998  5.9749166000000002 13.4435080599999992
 -4.2148105800000000  9.5736070099999999  0.0570007300000000
  0.1020441900000000  9.6391911300000004  0.1061584900000000
  4.1331963399999996  9.5087432300000003 13.4235422999999994
 -0.0615815300000000  2.3740209499999998  6.6018741900000002
  4.1067716399999998  2.3173108999999998  6.6223531299999996
  8.3000277499999999  2.3697152799999999  6.6747070600000002
 -2.0410831200000001  5.9728218499999999  6.6375757999999996
  2.0648377199999999  5.9743886699999997  6.7496983200000003
  6.1669997299999997  5.7722903600000004  6.6973903899999998
 -4.1326500299999998  9.5401607100000003  6.7059701799999996
  0.1243381400000000  9.5232360800000002  6.6660432199999997
  4.1412437500000001  9.5385799299999992  6.6022379600000001
  2.1988873500000001  1.0723487800000000  3.3443469299999999
  6.1083967000000001  1.1775910800000000  3.4946067599999999
 10.3588219800000001  1.2940965000000000  3.5658416000000002
  0.1078332100000000  4.6301226599999996  3.3549505000000002
  4.2399835499999998  4.7691342299999997  3.3847835599999998
  8.1462136899999997  4.6654607900000000  3.3676727999999998
 -2.0365740500000000  8.4576845499999997  3.4596942700000000
  2.0209493100000002  8.3860850399999993  3.2750163099999998
  6.0965867600000001  8.1782681000000004  3.3783511399999999
  2.2610365099999998  1.2366807200000001 10.0212981899999996
  5.9612470799999997  1.2522825799999999 10.0809540900000005
 10.3455907499999995  1.1503525800000001  9.8542939199999999
 -0.0933860100000000  4.7883256100000002 10.1018012299999995
  4.1318774700000001  4.7720327300000003 10.0870160200000001
  8.1654201600000000  4.6524625000000004 10.1016054200000003
 -2.0389301799999999  8.4465220399999996  9.9323748500000004
  2.0924943300000001  8.4229058099999996  9.9693300800000006
  6.2967155999999997  8.2408390399999991  9.9579939999999993
  0.0171613900000000  2.3803702599999998  2.5338045100000000
  4.1567730899999997  2.4138509199999998  2.5544899999999999
  8.1020023800000001  2.4657164200000001  2.4402069300000000
 -2.1950967200000000  5.8480883900000000  2.4217443799999998
  2.0191838000000000  5.9322648800000000  2.3852869999999999
  6.0383492800000003  5.9541437899999998  2.5213566799999998
 -4.1452619799999999  9.5434127800000006  2.4866682400000002
  0.0015661500000000  9.5482576500000000  2.5311047000000002
  4.1239140599999997  9.5781947400000007  2.5287334200000000
 -0.1341254400000000  2.5198940799999998  9.3768614299999999
  4.1533756000000004  2.3892887799999998  9.2464162200000004
  8.2818610199999991  2.3820565800000000  9.2743902299999998
 -2.0922786599999998  5.8006865100000002  9.4044630799999993
  2.0542935299999998  5.9701684600000000  9.2534921299999997
  6.2423909799999997  5.9401463400000001  9.2185306899999997
 -4.0252522300000004  9.4577057599999996  9.1695922700000008
 -0.0787333100000000  9.5717836900000002  9.3417448099999998
  4.1240696500000000  9.5488727600000001  9.2419519000000001
  2.0584280000000001  1.1924164500000001  5.8857481900000002
  6.2588667600000001  1.0681000199999999  5.9717118999999999
 10.5389922299999999  1.2700912700000000  5.9755706499999999
  0.0379826000000000  4.8051397500000004  5.8189742899999999
  4.0841008600000004  4.7481710599999998  5.7560145000000000
  8.1137785499999993  4.7436546300000000  5.7367504499999997
 -2.1198005000000002  8.3853101599999995  6.0568138600000001
  2.2219549199999999  8.2777661100000000  5.9650173700000000
  6.1759908000000001  8.1325122699999994  5.9771197200000001
  2.0765563500000002  1.1991225500000000 12.6229487999999996
  6.1622082999999996  1.0345135999999999 12.4365641599999996
 10.4569442499999994  1.1610336500000000 12.6171333699999995
  0.0518867200000000  4.6589574000000002 12.4099022600000009
  4.0831867099999997  4.8182137400000000 12.4782166199999995
  8.4129684099999995  4.6786810100000000 12.6259086899999993
 -2.0540318599999998  8.3556366600000000 12.6284351499999996
  1.9363163900000000  8.2621565199999996 12.7116086900000003
  6.1819884099999998  8.3385886700000000 12.5871346299999995
