Cd S 
 1.0000000000000000
    12.3977854500000007    0.0000000000000000    0.0000000000000000
    -6.1988927199999999   10.7367971499999992    0.0000000000000000
     0.0000000000000000    0.0000000000000000   13.4479464199999992
 Cd  S  
  36  36
Cartesian
 -0.0261656500000000  2.4295673400000002  0.1378735900000000
  4.1171733799999997  2.3539515099999999 13.4374710099999994
  8.2177446399999994  2.4642076799999999  0.1686463900000000
 -2.0966208599999998  6.0016014000000002  0.2280847000000000
  2.0627406300000000  5.9665853799999997  0.0148817700000000
  6.2024727100000003  5.9441344100000002 13.4384832299999992
 -4.0468809099999996  9.4960812200000007 13.3993389500000006
 -0.0865461500000000  9.5372638100000007  0.1134541400000000
  4.2850636399999997  9.7087195099999999  0.0633976500000000
  0.0281755800000000  2.4405923100000000  6.6872154000000004
  4.0473468199999996  2.5093795399999999  6.8842649299999996
  8.2623587500000006  2.3909815399999998  6.7269282600000002
 -2.0542674200000000  5.9394381400000000  6.7160303099999998
  2.0578544800000000  5.9309483399999996  6.6382094699999996
  6.2486820500000002  5.8985821600000001  6.5708930800000003
 -4.1336253000000003  9.5277681899999997  6.6728033699999996
 -0.0416665300000000  9.7075618699999993  6.6940056700000001
  4.2262504600000002  9.5558834600000004  6.7359195600000001
  2.1520093299999998  1.0523856400000000  3.3313147999999999
  6.2056636500000000  1.1773610999999999  3.3892017499999998
 10.5551686199999999  1.2371003199999999  3.3232530200000001
 -0.1694339600000000  4.8201547400000004  3.3760601499999998
  4.0808882300000002  4.8202280699999998  3.3824779100000000
  8.1249143000000004  4.7555019300000003  3.3049148700000002
 -1.8625905300000001  8.3412389400000002  3.3333219000000001
  2.1013107600000001  8.1623800000000006  3.4574050299999999
  6.2146424400000004  8.3719949200000006  3.3222171299999999
  2.0027790500000000  1.2336951400000000 10.2008493900000001
  6.1447748400000002  1.0714457100000001 10.0997859200000004
 10.3457237200000005  1.2202649100000000 10.0853379800000003
  0.0014724900000000  4.7299366500000000 10.2203132700000001
  3.9778210299999999  4.7697753199999999 10.0154854499999999
  8.2733964400000009  4.7842876099999998 10.0860941600000000
 -1.9840644000000001  8.2358278600000006 10.2741640899999993
  2.2051962700000001  8.2598014099999997 10.1372449000000007
  6.2157183800000002  8.5581481200000002 10.1668181499999992
  0.0942598700000000  2.3181934700000002  2.5910438099999999
  4.1189063399999997  2.3856978600000001  2.4719744800000001
  8.4752615200000001  2.3144673700000000  2.6124710900000001
 -2.1435733799999999  6.1328933200000000  2.5560697299999999
  2.0390986099999999  6.0738372800000002  2.3313653099999998
  6.2337910100000000  6.0148400899999999  2.4164775000000001
 -4.0091527700000000  9.6352235600000000  2.5528801500000000
  0.0989800200000000  9.4943400300000000  2.5856341000000000
  4.1568802099999997  9.5881746999999997  2.5223361000000000
  0.1234022300000000  2.3775771899999998  9.2673994499999992
  4.1086554800000004  2.4373364899999999  9.3232425899999996
  8.1905046000000006  2.4190289599999999  9.0770769900000001
 -2.0787767300000000  5.9511927800000004  9.2319372200000007
  2.0615105900000001  5.9534082100000001  9.2406157199999992
  6.2158031800000000  5.8899563199999996  9.1861230200000001
 -4.2427328800000002  9.5920717300000007  9.0483789399999992
  0.0085727000000000  9.5478151899999997  9.2516865999999993
  4.2041970400000004  9.4880769300000001  9.2798386700000002
  2.1680984400000001  1.0903305500000000  5.9752091700000003
  5.9974174900000001  1.3081484999999999  5.9672552500000000
 10.3707715799999995  1.3269422900000001  5.8155650999999997
  0.0716025400000000  4.7662624600000001  5.8996404499999997
  4.2776478400000002  4.6113115799999997  5.9278535699999999
  8.1095611299999995  4.7748887199999999  5.8749147900000001
 -2.0914959899999999  8.4427702799999995  5.9053162900000000
  2.0452843000000001  8.2472625399999995  5.9795150699999997
  6.1257383599999997  8.2091663500000003  5.8389798600000002
  2.0242496600000002  1.2459041700000000 12.6113475200000007
  6.2039011200000003  1.3792220100000001 12.5737032200000005
 10.2441652699999999  1.1948232100000000 12.4379709500000004
  0.0031639200000000  4.7698354500000004 12.6166476299999992
  4.1016577400000003  4.7645077400000000 12.7571914399999997
  8.3129000600000005  4.8166327400000002 12.5045725799999996
 -2.0422243400000002  8.3815323100000008 12.6471068199999994
  1.9962809399999999  8.3996436800000005 12.6787701500000001
  6.1257829299999997  8.4198507599999992 12.7346161099999993
