Cd S 
 1.0000000000000000
    12.3977854500000007    0.0000000000000000    0.0000000000000000
    -6.1988927199999999   10.7367971499999992    0.0000000000000000
     0.0000000000000000    0.0000000000000000   13.4479464199999992
 Cd  S  
  36  36
Cartesian
 -0.0277178500000000  2.3851872200000002 13.4099344499999997
  4.0836661999999997  2.3535653100000000 13.2742656500000002
  8.2747755699999992  2.3990181399999999  0.0166613300000000
 -1.9846802600000000  6.0716319500000004 13.3499661599999992
  2.1559840000000001  5.9109065000000003 13.4286970300000004
  6.3394697300000002  5.9758470499999996  0.0137152900000000
 -3.9078702999999999  9.4892110600000006 13.3556425399999998
  0.0010168100000000  9.4393970500000002 13.3584329900000007
  4.1487672800000004  9.7145664499999995 13.4087121699999994
 -0.0303018600000000  2.4154809799999999  6.6724394699999996
  4.0123778799999998  2.2815865700000000  6.6880501099999998
  8.3656875999999993  2.4300873200000002  6.6403774100000001
 -2.0897322800000002  6.1047158799999997  6.6885046499999996
  2.0081517600000001  5.9627548099999998  6.7603181699999997
  6.1039733600000003  6.0572670799999999  6.6316981100000003
 -3.9598525400000000  9.4641935700000008  6.7137519599999997
  0.1008727900000000  9.5997446699999998  6.6124709099999999
  4.0043421300000004  9.5149217200000002  6.5531851000000003
  2.0866088500000002  1.2013248800000000  3.3366174599999998
  6.2562026700000004  1.3916163600000000  3.3715635599999998
 10.1966835499999995  1.1588000800000000  3.3670267599999999
 -0.0496827600000000  4.7447514999999996  3.4001985399999999
  4.1862238999999999  4.8815940199999996  3.4296226500000002
  8.2361448700000004  4.7802240500000002  3.3874048399999999
 -2.0261635000000000  8.2509743600000007  3.5417475899999999
  1.9608439799999999  8.2945813299999998  3.4209016499999998
  6.1957973099999997  8.5887955500000004  3.3701476299999999
  1.9842608500000001  1.3941043900000001 10.0426379299999997
  6.1584290199999998  1.2071974800000000 10.0858317900000003
 10.2953347100000006  1.2857833200000000 10.2767980100000003
  0.0205550300000000  4.8789253900000000 10.1656218200000001
  4.0956136900000004  4.7885892999999999 10.0749645099999992
  8.3837276799999998  4.7508270200000000 10.0298747499999994
 -2.2466950600000000  8.2829786100000007 10.0277089600000000
  2.0577314300000000  8.1777516600000002 10.0606275099999998
  6.2497969199999996  8.3794850200000006 10.0942407900000006
 -0.0151893900000000  2.2980785099999999  2.5610702200000000
  4.0891677800000004  2.5202056599999998  2.4938138099999998
  8.2479672100000005  2.4447523900000001  2.5250532600000000
 -2.0678866999999999  5.8995680100000003  2.5928329200000002
  1.9916836499999999  5.8419475900000002  2.6933825499999999
  6.3842251100000000  5.9754673900000004  2.4363848899999998
 -4.1107539299999996  9.7072463199999994  2.6163905000000001
 -0.0351515600000000  9.6053468100000003  2.6690322200000001
  4.2286364200000000  9.5035308399999998  2.3311341400000001
 -0.1611594900000000  2.4350024100000001  9.0754641800000009
  4.1294897099999996  2.3407549099999998  9.2589018299999992
  8.2567972300000001  2.4063682300000000  9.2083908099999991
 -1.9680612799999999  6.0451356799999996  9.2202813500000005
  1.9702963000000000  5.9642406799999996  9.1525706699999994
  5.9832566800000002  5.9161659200000001  9.1916911500000005
 -4.1709319699999998  9.4515510999999996  9.2850447700000007
  0.1927853800000000  9.4215411099999997  9.1834053299999994
  4.0082584700000004  9.4123724200000005  9.2930226299999994
  2.1701239299999999  1.3661033600000001  5.7854087500000002
  6.1519591100000000  1.3416752199999999  5.7066937600000003
 10.5034049500000002  1.2274476100000000  5.8785815100000001
  0.0925991900000000  4.9506667300000000  5.9340010300000001
  4.2566284500000000  4.7104475399999997  6.0089266700000001
  8.2694443999999994  4.7580095099999999  5.8827847999999996
 -2.2213044599999998  8.4184401599999994  5.7363415000000000
  2.1225217600000001  8.2246235799999994  5.9336864800000004
  6.1788439600000000  8.3947008899999993  5.7457317999999997
  2.0639002000000000  1.1965648300000000 12.6192132299999997
  6.2219596099999999  1.2018338000000000 12.6748830199999993
 10.5094217200000006  1.2829066099999999 12.5962527400000006
 -0.0400266200000000  4.7962348700000002 12.6063226999999998
  4.0375390600000003  4.6540466100000000 12.5413419499999996
  8.2765045599999993  4.7847417700000001 12.5857566199999997
 -2.0133320399999999  8.2624953800000007 12.5525348099999992
  2.1378668699999999  8.4497905299999996 12.7028106399999992
  6.0444912700000000  8.2375459600000003 12.5730474999999995
