Cd S 
 1.0000000000000000
    12.3977854500000007    0.0000000000000000    0.0000000000000000
    -6.1988927199999999   10.7367971499999992    0.0000000000000000
     0.0000000000000000    0.0000000000000000   13.4479464199999992
 Cd  S  
  36  36
Cartesian
  0.0924060300000000  2.4364842000000002  0.0124963700000000
  4.0839418600000004  2.5305031100000002  0.0708111000000000
  8.3089036299999997  2.5035151999999998  0.0124986600000000
 -2.1608475899999999  5.9798250299999998  0.0483519600000000
  2.2420839600000000  6.0361975100000000  0.0411879700000000
  6.0605072800000004  6.0464015499999997  0.1846116600000000
 -4.1262736000000002  9.5399736700000002 13.4477850399999994
  0.0039529100000000  9.5515256100000006  0.0079615900000000
  4.1527203799999999  9.5973542300000005  0.0576735400000000
  0.1669725100000000  2.4921600700000002  6.6940388899999999
  4.0259251200000001  2.5084880599999999  6.8449108599999997
  8.3059514100000005  2.3236389599999998  6.5074050600000000
 -2.0100249300000002  6.0379353699999996  6.7050253199999998
  2.1804921300000002  5.9522978100000001  6.8597396399999999
  6.1472398999999998  5.9365551999999999  6.8670447000000001
 -3.9992938100000002  9.4888442899999994  6.6130939499999997
  0.0674282700000000  9.4808784500000005  6.7446647600000000
  4.0614961699999999  9.4975635399999998  6.6626867499999998
  2.0861205599999999  1.0969532300000000  3.2556280100000001
  6.1916645099999998  1.1887823700000000  3.4111178700000000
 10.4527176599999994  1.1451338499999999  3.2763904300000002
 -0.0294801300000000  4.8461748299999998  3.3349259700000000
  4.2325787300000002  4.6058107899999996  3.4818055200000000
  8.1120070299999991  4.8583921200000004  3.5360568200000002
 -2.0706616900000001  8.3553825199999991  3.3142076700000000
  2.0568120099999998  8.3425187600000008  3.3712632700000000
  6.1788813400000002  8.3564528700000000  3.3908945799999999
  2.1113881100000000  1.2044174000000001 10.0665372099999999
  6.2012484900000002  1.1445570700000001 10.0083600500000003
 10.3786031399999992  1.2837825199999999 10.1580160599999996
  0.0256849300000000  5.0103176899999999 10.1123475099999993
  4.1601333199999999  4.7233470500000001 10.1140664299999994
  8.1912941499999992  4.6938222500000002 10.2166382200000001
 -2.0123099099999999  8.1622314100000004 10.0938260599999996
  2.1311219200000000  8.2849769400000000 10.2330825000000001
  6.4166151999999999  8.3038133599999995 10.0607813600000000
  0.0437209200000000  2.4156019899999999  2.5240076800000000
  4.1840700999999996  2.3767727900000000  2.7321637299999999
  8.3770868000000007  2.4089247700000000  2.4636898700000001
 -1.8922740499999999  5.8110933600000001  2.4587274500000000
  1.9929950900000000  5.9308802700000003  2.5981954300000001
  6.2246836500000002  5.8598214600000000  2.4827617499999999
 -4.0845101699999997  9.5824583200000006  2.5474455699999998
  0.0074756800000000  9.5409912000000006  2.5268906499999999
  4.1089228400000000  9.5672959199999994  2.5216841400000001
 -0.0791704600000000  2.4381240300000000  9.1334639600000003
  4.1437449300000004  2.4013772300000000  9.2242221299999994
  8.2533306799999995  2.4108834899999998  9.2611839499999995
 -2.1391501000000002  6.0492927500000002  9.1784589099999998
  2.0149865299999998  6.0449630299999999  9.4111976700000000
  6.2244122700000002  6.0037566000000000  9.3176443399999993
 -4.2078886500000001  9.5922527500000001  9.3819610299999994
 -0.1403081500000000  9.5925190199999992  9.1972325099999992
  4.1253864199999999  9.4818745000000000  9.1441908499999993
  1.9621618599999999  1.2032809099999999  5.9576692800000002
  6.0906611699999997  1.1716179900000001  5.7588213599999998
 10.3712699700000002  1.2161915900000000  5.9285215300000003
 -0.1262153400000000  4.8169211299999999  6.0032098100000004
  4.0903950900000003  4.7658500600000000  5.9002053999999999
  8.3776442699999993  4.9034940799999998  5.8050716700000002
 -1.9270396100000000  8.3113875299999993  5.7969514000000002
  2.1276803000000002  8.3796636800000002  5.8192029099999996
  6.3234954300000004  8.4045904399999998  5.7965558899999996
  2.1119294000000002  1.1959956700000001 12.6546100999999993
  6.2559258900000003  1.2914387100000000 12.7521229100000006
 10.2667906099999993  1.1737408700000000 12.5257651899999995
 -0.0501037900000000  4.8803797900000001 12.5548654699999993
  4.0218520800000004  4.6842555499999996 12.5190264300000003
  8.2747303799999994  4.7262201099999999 12.6498554500000004
 -2.1426966099999998  8.2314941600000004 12.6798861899999995
  1.9755066500000000  8.3092197700000003 12.6254550900000009
  6.1991163199999999  8.3099884199999998 12.7318431400000005
