Cd S 
 1.0000000000000000
    12.3977854500000007    0.0000000000000000    0.0000000000000000
    -6.1988927199999999   10.7367971499999992    0.0000000000000000
     0.0000000000000000    0.0000000000000000   13.4479464199999992
 Cd  S  
  36  36
Cartesian
  0.1030748800000000  2.4380076399999999 13.4083271600000007
  4.1095631900000003  2.2814498900000002 13.3501821399999994
  8.0846175299999992  2.4481144000000001  0.0820950100000000
 -2.0989355299999999  6.0542462800000001  0.0811182800000000
  1.9352194899999999  5.9277602600000003 13.4350228099999995
  6.3186136800000003  5.9061478400000000 13.3905961700000002
 -4.1541104100000004  9.4164926700000002 13.3433820500000007
  0.1331983400000000  9.5341549699999995 13.3469726499999997
  4.3160673999999997  9.4035211099999998  0.0540070900000000
  0.0244478800000000  2.4813729200000001  6.8747203900000002
  4.2755121300000001  2.3550680300000000  6.7846772399999997
  8.2546545200000008  2.4150098500000001  6.7860504099999996
 -1.9998497600000000  5.8286772300000003  6.9173587100000002
  1.8941758200000001  5.8423957399999997  6.7694806600000001
  6.2893859000000001  6.0463186599999998  6.8204842799999996
 -4.1866244699999999  9.6793842199999993  6.7607177099999998
  0.0129734200000000  9.5793422899999996  6.7488914500000003
  4.1215737299999997  9.5635856100000005  6.7062240700000002
  1.9826438700000000  0.9807032400000000  3.4591911899999999
  6.0787095200000003  1.2313097500000001  3.3888408100000000
 10.3371828200000007  1.0388599599999999  3.4517948199999999
  0.0213589700000000  4.5564850899999998  3.3254063100000000
  4.1328865199999996  4.7722850499999998  3.3641378700000000
  8.2595838199999996  4.7204251399999997  3.3856691099999998
 -2.0939825500000002  8.3264412700000001  3.3727734699999998
  2.1026516499999999  8.3444856400000003  3.4103419200000000
  6.1324577700000003  8.3436330299999995  3.3605121699999998
  1.9365583900000001  1.1130425300000000 10.2401276100000000
  6.3457194499999998  1.1730273000000000 10.0481090900000005
 10.3022606700000008  1.1817679100000000 10.0217269099999999
  0.0051618200000000  4.7229362600000000 10.1623484499999996
  4.3268658699999998  4.7189341200000001 10.1367597000000007
  8.2964778900000002  4.7543950700000002 10.0154212999999999
 -2.1192467599999998  8.3592855600000000 10.1134482200000004
  1.9135520699999999  8.4475820800000001 10.0698150200000001
  6.1914437700000002  8.3101407700000003 10.1305047899999998
 -0.0124465700000000  2.3255744800000002  2.6963818399999999
  4.0083764300000002  2.4518398600000002  2.3523465200000002
  8.2594533299999995  2.3782595099999999  2.5390341400000001
 -2.0690916399999999  5.9664333400000000  2.5386070400000000
  2.1148083600000001  5.9252615899999999  2.7642360099999999
  6.1643860999999998  6.1426303100000004  2.5073441900000000
 -4.0942219099999999  9.5278265999999991  2.5141485900000000
 -0.0045654200000000  9.4884921299999991  2.5270395200000002
  4.1164647900000002  9.3695891800000002  2.4326197399999998
 -0.0021176000000000  2.3528635499999999  9.2458177900000003
  4.3492813100000003  2.4418314500000000  9.2987926099999996
  8.2498315299999998  2.4496235700000000  9.2847327800000006
 -2.2090095800000000  6.0402464599999997  9.1275765799999995
  2.1518769899999999  6.0491884999999996  9.2510635600000004
  6.1649904900000001  5.9932385100000003  9.2117366599999997
 -4.3546237600000000  9.4535301100000009  9.2924470600000006
 -0.0530729900000000  9.5019206399999998  9.2449534900000003
  4.2433911499999999  9.5914832400000005  9.3239698499999992
  2.0732475099999998  1.2207011500000000  5.8990296500000001
  6.2347765700000002  1.1336807000000000  5.8569467199999998
 10.3486290099999998  1.1786084999999999  5.9583272899999997
 -0.1748455900000000  4.7617173599999996  5.9554539999999996
  4.3101604099999999  4.8572325500000000  5.9506040000000002
  8.3223615500000001  4.7040046000000002  5.7017112900000004
 -2.1039290400000001  8.2878431300000006  5.8398043499999996
  1.9068027100000000  8.2639519299999993  5.8408832799999999
  6.1928490600000003  8.3610377000000007  5.9019595499999999
  2.0411145500000001  1.1413033900000000 12.5753499200000007
  6.2169072700000001  1.1977748600000000 12.6453600700000006
 10.3144450299999999  1.2389053900000000 12.5853149900000005
 -0.0717833600000000  4.6623050299999997 12.7389148799999994
  4.1035514400000004  4.7897695999999996 12.7136998400000003
  8.2767081999999998  4.7287445400000001 12.6116206500000008
 -2.0721659200000002  8.3328723999999994 12.6161633700000007
  1.9704992500000000  8.2537711900000001 12.5465485900000004
  6.2516489000000002  8.2876991499999999 12.7166452099999994
