Cd S 
 1.0000000000000000
    12.3977854500000007    0.0000000000000000    0.0000000000000000
    -6.1988927199999999   10.7367971499999992    0.0000000000000000
     0.0000000000000000    0.0000000000000000   13.4479464199999992
 Cd  S  
  36  36
Cartesian
 -0.0896739900000000  2.2825222900000002 13.2800656200000002
  4.0476977999999999  2.5359558999999998 13.3534696200000003
  8.3410206500000008  2.2891457100000001  0.0922510300000000
 -1.9737183300000001  5.8937076499999996  0.1602581000000000
  1.9554343300000001  5.9553911900000003  0.1460440300000000
  6.2128531300000001  5.8636434399999997  0.0882392400000000
 -4.1479173999999999  9.5170068000000008  0.0075917700000000
 -0.1296782300000000  9.6263840599999995 13.3245863900000003
  4.2029541600000000  9.5687807100000004 13.3509325299999997
 -0.0018997100000000  2.2941327399999998  6.7132159299999996
  4.1571751499999996  2.4211276800000001  6.6683631300000004
  8.4139470299999992  2.3813101600000000  6.6454576400000001
 -2.0461101799999999  6.0415852299999999  6.6122018100000002
  2.1495749100000001  6.1163612299999999  6.7271863300000003
  6.1586304199999997  6.0244269700000004  6.6301632899999996
 -4.1348850400000003  9.5391979399999993  6.7586629900000004
 -0.0403436900000000  9.4902757199999996  6.8512414799999997
  4.1995233199999999  9.4934985899999997  6.7865540400000004
  2.0648512900000000  1.1930954499999999  3.3651326199999998
  6.2315959100000002  1.2298416000000001  3.4426777799999999
 10.3596313000000002  1.1149244800000000  3.3947603300000000
 -0.1655696900000000  4.7614946700000003  3.2686453499999999
  4.0494510400000001  4.7476477499999996  3.5885851700000000
  8.3005544100000002  4.8676025799999998  3.3644343999999999
 -1.9341104400000000  8.2234351199999995  3.4736865899999998
  2.0543737399999999  8.2577272700000002  3.4916615200000001
  6.2134943399999996  8.3305522799999991  3.3905679300000000
  2.0991874500000001  1.2474573499999999 10.1683216299999994
  6.2712839499999999  1.2591595000000000 10.2048159900000002
 10.2691735299999998  1.3268234400000001 10.0625525899999992
  0.0362500100000000  4.8866797200000001 10.0330329999999996
  3.9755045099999999  4.6670795700000003 10.1087105099999999
  8.1980670000000000  4.7070520299999998 10.2865953799999996
 -2.0980500800000002  8.3919190900000000 10.0461641099999994
  2.0514953500000002  8.4002625500000008 10.0276402400000002
  6.1173074900000000  8.3315731399999997 10.0593209100000003
 -0.0172787900000000  2.3746980099999999  2.5977812299999998
  4.2018162200000004  2.4501823100000002  2.6219551200000000
  8.4512342999999994  2.3152031599999998  2.5462555600000001
 -2.0525625399999998  5.9257559200000003  2.5642884499999998
  2.1382585199999999  5.9570399399999996  2.6538439700000001
  6.1724281699999999  6.0650496499999997  2.5504323599999998
 -4.1685463900000004  9.4574260599999995  2.4862227099999998
  0.0004377100000000  9.5417721899999997  2.5328003500000000
  4.1185603200000003  9.5520899299999993  2.5588492899999999
 -0.0671402100000000  2.5925867100000000  9.3060875799999998
  4.1290668200000002  2.3816844399999999  9.2584025099999998
  8.1135336900000006  2.4934190699999998  9.1332159799999992
 -2.1604075300000001  6.1554696900000003  9.2041360099999991
  2.0347775499999998  5.9381959999999996  9.2867943499999992
  6.0804631300000000  5.7692440100000004  9.1810171100000009
 -4.2556166600000003  9.3394114800000008  9.2559832199999992
  0.0016236200000000  9.5504757599999994  9.2513795900000009
  4.2276980300000000  9.5735931599999997  9.3062704699999994
  2.0964754399999999  1.2433651299999999  5.9424256299999998
  6.1165636200000000  1.2697662700000001  5.6988063999999996
 10.3323721099999997  1.1764075599999999  5.8665835199999998
 -0.0397933600000000  4.7472839899999997  5.8374215100000004
  4.2699198000000003  4.8362695899999997  5.7077207699999999
  8.2002333899999993  4.7350673399999996  5.7257610600000000
 -2.0452028400000000  8.2856727899999996  5.9549554899999997
  1.9835717900000001  8.3596423499999997  5.9158730700000000
  6.1347833500000002  8.2728723800000008  5.9382493700000003
  2.1331578800000002  1.1512318200000000 12.6961799899999992
  6.1991389500000000  1.2222750499999999 12.6237999199999997
 10.3377215600000003  1.1898016100000000 12.6101521299999995
 -0.0251556000000000  4.7817217300000001 12.5961910100000001
  4.2087547699999996  5.0054603699999998 12.6569589199999992
  8.3194280500000009  4.7367927400000003 12.4687163200000004
 -2.0412852699999999  8.3798544699999997 12.6381230599999999
  2.0743538899999998  8.4194133400000002 12.5857895600000003
  6.3229781300000001  8.3222455400000008 12.6708575099999994
