Cd S 
 1.0000000000000000
    12.3977854500000007    0.0000000000000000    0.0000000000000000
    -6.1988927199999999   10.7367971499999992    0.0000000000000000
     0.0000000000000000    0.0000000000000000   13.4479464199999992
 Cd  S  
  36  36
Cartesian
 -0.0370714900000000  2.3774618799999998 13.4042005199999998
  4.1255461000000002  2.3972094199999998 13.4433135999999998
  8.2687189399999994  2.3326171699999998 13.3081846000000006
 -2.0445489200000000  5.8305534899999998 13.4073961500000003
  2.0748643599999999  6.0238398899999996 13.4254078000000003
  6.1973798300000000  5.9398841400000002 13.4332357099999999
 -4.1588847299999996  9.5026216399999992  0.1408426300000000
  0.0022807600000000  9.4886617700000002 13.2483759400000007
  4.2781266999999996  9.6749565799999999 13.3708340099999994
 -0.0205183300000000  2.2799857200000000  6.6359884100000004
  4.0891539500000000  2.4105021199999999  6.7728443900000004
  8.1846192999999996  2.2426466800000000  6.6486761400000001
 -1.9371412699999999  6.0292968599999996  6.7677745199999997
  2.0027344800000000  5.9262871700000002  6.6945304099999996
  6.3679088899999998  5.9353356100000001  6.7715264900000003
 -4.1558044399999998  9.5599306899999998  6.7040143099999998
 -0.0000248500000000  9.6264962599999997  6.7726998299999996
  4.1614443899999998  9.4778419700000001  6.7008469100000001
  2.2247781400000002  1.0504414200000001  3.3102633799999999
  6.1318827599999999  1.0912278300000000  3.4686189999999999
 10.3021947199999993  1.1400374200000001  3.2901682499999998
 -0.1183139900000000  4.8948438699999999  3.4445037400000000
  4.1323845300000004  4.7707872599999996  3.3624956099999999
  8.3315092600000007  4.6821771200000004  3.4016027800000002
 -2.0863623100000002  8.3486094299999998  3.3668457500000000
  1.9981893300000000  8.3428786600000002  3.3902314599999999
  6.2495262100000000  8.2035440200000007  3.4930831000000002
  2.0107984299999999  1.1920732999999999 10.0047367699999992
  6.3692653200000002  1.0158738700000001 10.0521530200000004
 10.3443310700000008  1.3998923900000000 10.1189876999999999
 -0.0733415200000000  4.7950483500000001  9.9641803200000005
  4.0726798400000002  4.8000522300000004 10.0922049099999995
  8.1967357199999995  4.8117536200000002 10.0721947699999994
 -1.9801883600000001  8.3149309900000006  9.9786363300000005
  2.0342847399999999  8.3806833500000000  9.9798661400000004
  6.1491812699999997  8.2906812900000002 10.1053122200000001
  0.0808470100000000  2.3875934399999998  2.4405494499999998
  4.0960882200000004  2.4016993400000000  2.5309973800000001
  8.1705275499999992  2.4072906299999999  2.6214081999999999
 -2.0861216699999998  5.8477862600000003  2.5009639500000000
  2.2026093499999999  6.1408045099999997  2.4431991000000002
  6.1504522200000000  5.9470838099999996  2.6176191000000002
 -4.0994229700000000  9.5542495299999999  2.5294270700000001
 -0.1163306500000000  9.7176010999999995  2.6233916300000000
  4.1451603300000004  9.5664779899999992  2.5173220299999999
  0.0129806100000000  2.3367767200000000  9.1415038099999997
  4.0870344300000001  2.2582232000000002  9.2017984899999998
  8.2655974899999993  2.3834637500000002  9.2593968499999999
 -2.1159071699999998  6.1219105400000000  9.3583445500000000
  1.9693926200000000  5.9521113200000002  9.3079959799999994
  6.2055180400000003  5.9667095000000003  9.2277345999999998
 -3.9814315100000002  9.5997522899999996  9.2667427900000003
 -0.0139447800000000  9.5508876300000001  9.2739114899999997
  4.2792234699999998  9.5520821999999992  9.3977022500000000
  2.0098292400000002  1.2491747000000000  5.9205729900000001
  6.1982817600000004  1.1654808299999999  6.0555104899999996
 10.2115101300000006  1.1341126399999999  5.9950327899999998
  0.0549261000000000  4.7929213900000001  5.8732106699999997
  4.2501186799999999  4.9751769100000001  5.8569496799999996
  8.2497375599999998  4.7723419500000004  5.9030285300000003
 -1.8825607000000000  8.2950946499999993  5.9076889100000001
  2.0581388199999999  8.3545222900000002  5.9005320499999998
  6.0623835000000001  8.4424201500000002  5.9635333900000003
  2.0306353300000000  1.1680030100000001 12.6084449200000002
  6.0938974300000002  1.2570701200000001 12.7335708000000007
 10.4218901299999995  1.2233455099999999 12.4196886000000006
  0.0216823700000000  4.7731696499999998 12.6129287300000001
  4.1893368000000004  4.7385713999999997 12.4743350000000000
  8.4011533899999993  4.6672240900000004 12.6433110000000006
 -1.9455570099999999  8.3038787500000009 12.5525368299999993
  2.1509954499999999  8.3956643000000000 12.4872142299999993
  6.1862421500000000  8.4303853800000006 12.6085487300000008
