Cd S 
 1.0000000000000000
    12.3977854500000007    0.0000000000000000    0.0000000000000000
    -6.1988927199999999   10.7367971499999992    0.0000000000000000
     0.0000000000000000    0.0000000000000000   13.4479464199999992
 Cd  S  
  36  36
Cartesian
  0.0013559500000000  2.3839149100000001 13.3859832599999997
  4.2753946000000003  2.2586683399999998  0.0015010600000000
  8.2792194299999995  2.4741173200000000  0.0210869200000000
 -2.0695964199999999  6.0208166199999997  0.0149666200000000
  1.9630588400000000  5.8282988700000002 13.3577359799999993
  6.1279899200000001  6.0017650299999996 13.4036223900000007
 -4.2117880000000003  9.3965110599999999  0.0727597100000000
  0.1309020200000000  9.6254302000000003  0.0452647100000000
  4.2785561000000003  9.5011732500000008 13.3947501100000004
 -0.0022323400000000  2.5891015400000001  6.6339250900000000
  4.1304217799999998  2.3425142499999998  6.7137636599999997
  8.0840175399999996  2.4057529099999999  6.7059949200000002
 -1.9551177500000001  5.9552304600000001  6.6877494200000003
  2.0325237600000001  6.0083714900000000  6.7517998400000003
  6.1834707499999997  5.9932037200000003  6.6850392500000000
 -4.1172711299999998  9.4811449400000001  6.5116801600000001
 -0.0054243400000000  9.5440273500000004  6.7312583699999999
  4.1427357599999999  9.5928455300000000  6.6893877799999997
  2.1188384400000002  1.1719358000000000  3.4398222399999998
  6.2291971300000002  0.9661998700000000  3.3899378900000001
 10.3529942100000003  1.2444275400000000  3.2657923699999998
  0.1104885700000000  4.8785287700000000  3.2341493500000000
  3.9839249600000000  4.7136399100000004  3.2404588599999999
  8.2582747300000001  4.8153961900000004  3.4394534999999999
 -2.0239574999999999  8.4643116200000001  3.4412543100000001
  2.0629306299999999  8.2460966399999993  3.3466673800000000
  6.2427391700000001  8.3239267100000003  3.4333672300000000
  2.2053544600000001  1.1417833300000000 10.1481164899999996
  6.1254002700000001  1.0956321700000000 10.0130502900000007
 10.2692309300000009  1.2191318600000001  9.9797443000000001
  0.0307144000000000  4.7698410300000003 10.1256394600000004
  3.9814903400000001  4.6425954899999997 10.0718950100000004
  8.2127044999999992  4.7180859100000001 10.0339572799999992
 -2.1386579700000001  8.3395380100000001 10.0653825700000006
  2.0618402400000000  8.4061859299999995 10.0294016500000005
  6.1905578800000001  8.2528407399999999  9.9841702899999998
 -0.0564971400000000  2.5744210100000000  2.4451778300000000
  4.3471547199999998  2.2906167599999998  2.5401414500000001
  8.2389068499999993  2.1936883900000002  2.4460944499999999
 -1.9690427500000001  5.9428783100000002  2.4543972100000002
  2.1617237500000002  6.0384131500000002  2.5332731800000001
  6.1978777200000001  5.8985586400000001  2.7673583499999999
 -4.1206431400000003  9.5324491099999999  2.5387966500000001
  0.0782219700000000  9.6614880200000002  2.5602026900000001
  4.1201917500000000  9.5289416100000004  2.5517173099999999
 -0.0651312700000000  2.3038469600000000  9.2929181399999994
  4.1056650699999997  2.3966276000000000  9.2395925999999999
  8.2819578499999995  2.3743215800000002  9.3072935900000004
 -2.0737820299999998  5.9713418899999997  9.2046477099999997
  2.1168808900000000  5.9876799600000004  9.1459463400000001
  6.1025159999999996  5.9180507599999999  9.0834505100000005
 -4.0890149700000000  9.5383673400000006  9.2410244000000006
  0.0290385900000000  9.5626167199999994  9.2605903600000001
  4.0048382900000004  9.4707395800000000  9.1879968600000002
  2.0711457700000002  1.1266965200000001  5.9381619600000004
  6.1783176700000002  1.1566370399999999  5.9516850799999999
 10.4511872700000001  1.1390911800000001  6.0236635999999999
 -0.0584919400000000  4.7613459699999998  5.8566566499999997
  4.0193454300000004  4.7411415699999999  6.0717168800000003
  8.3794899300000001  4.7745404200000001  5.7831883599999996
 -2.0632267400000002  8.4427360300000007  5.8607553100000001
  2.1917022700000000  8.3012699199999993  5.8033137500000000
  6.0256577900000003  8.2373967199999996  5.8345472799999998
  2.0329032499999999  1.1795817900000001 12.4144459200000004
  6.1944998800000004  1.2070658400000001 12.6434263900000001
 10.3207967299999996  1.3587940700000001 12.4579221899999997
 -0.0276278400000000  4.7740124899999996 12.4152143299999995
  4.1006703199999999  4.7851237900000001 12.6325888200000005
  8.2072356600000003  4.7594793800000001 12.6124926100000003
 -2.1095489000000001  8.4117568299999999 12.5550990700000007
  1.9694172999999999  8.2785734099999999 12.6053050899999999
  6.1236845999999998  8.3664500099999994 12.8116540099999998
