Cd S 
 1.0000000000000000
    12.3977854500000007    0.0000000000000000    0.0000000000000000
    -6.1988927199999999   10.7367971499999992    0.0000000000000000
     0.0000000000000000    0.0000000000000000   13.4479464199999992
 Cd  S  
  36  36
Cartesian
 -0.0538310600000000  2.3837300199999998  0.0694819100000000
  4.3022493199999996  2.3101463500000001  0.0670674600000000
  8.3203682400000005  2.5179778800000001  0.1936801500000000
 -1.9258975899999999  6.0948815099999996  0.1614939700000000
  2.1387571599999999  6.0165668900000000 13.3271595200000004
  6.2237181200000000  5.9963001100000000  0.0282946100000000
 -3.9427859399999998  9.5729149200000005 13.4311182000000002
 -0.0976425400000000  9.5099863399999993 13.4433123899999991
  4.1714474199999998  9.3721019200000004  0.1244252400000000
 -0.1022762700000000  2.4226167699999999  6.7156135600000004
  4.2028187099999998  2.2602638300000000  6.6193437499999996
  8.4056896699999992  2.4596895299999999  6.8220337500000001
 -2.2336643700000001  5.9264339399999999  6.7468452100000000
  2.0569942600000002  5.9813873400000004  6.7568875999999998
  6.2304165800000000  5.9766578900000003  6.7982905999999996
 -4.2032339700000003  9.4013807299999996  6.7438990299999997
 -0.0031210800000000  9.5794598499999992  6.7575875600000002
  4.0882833200000004  9.5018522399999998  6.7185914799999997
  2.0452918000000002  1.2768332300000000  3.3464388999999999
  6.2791184900000001  1.1957181200000000  3.3189262799999999
 10.3712081099999995  1.1527031900000000  3.3461223300000000
 -0.0184968700000000  4.8110188000000003  3.3682259100000000
  4.2135711799999997  4.8330104399999998  3.4103631700000001
  8.2795065000000001  4.7606571000000004  3.3398632500000001
 -2.0611415599999998  8.3629150299999999  3.3266491700000000
  2.0416976899999999  8.3340876900000005  3.3635707699999999
  6.0771692899999996  8.4459698400000001  3.2744084700000000
  1.9571948699999999  1.2598486900000001  9.9502056200000002
  6.2522645700000004  1.2175304600000001  9.9219639900000001
 10.4864275500000002  1.0757568600000000 10.0532795600000000
  0.0001839200000000  4.7562775600000000 10.1733323299999991
  4.2668286599999998  4.6765977500000000 10.1246334200000003
  8.3123917499999997  4.7676452500000002 10.0774562799999998
 -2.0572034000000001  8.3465476400000007 10.0759877600000003
  2.0792409100000002  8.3429977300000004 10.0955386499999999
  6.1588037499999997  8.3257486400000005 10.0686839100000007
 -0.0682680300000000  2.3788851499999999  2.5967997999999999
  4.3567470699999999  2.3388858500000000  2.5273672399999998
  8.2749152899999991  2.3862151599999999  2.5401312300000001
 -2.0527801200000000  5.8126639400000002  2.6564220800000000
  2.0771488400000000  5.8181085699999997  2.4832119900000000
  6.2272259400000003  5.9056654300000000  2.4150627700000000
 -3.9854208099999999  9.7095425899999999  2.5753039300000000
  0.0748456200000000  9.4403912699999992  2.3187045999999998
  4.1290117200000003  9.5370048399999998  2.5394269600000001
  0.0044437400000000  2.3890666399999998  9.2862428500000007
  4.0678965800000002  2.5692510300000002  9.1076539899999993
  8.1844612899999998  2.3138843599999999  9.2113741000000005
 -2.2153396999999999  6.0222916399999997  9.3239611100000008
  2.1842138900000001  5.9279311899999998  9.3310354100000001
  6.1140808399999997  6.1389413599999996  9.1345469200000000
 -3.9866659200000001  9.3914907500000009  9.2238704699999996
  0.0079670100000000  9.5099223399999993  9.2179259400000007
  4.2816030999999999  9.6039578999999993  9.2625018499999996
  2.1754254000000000  1.1995952900000000  5.9541246699999997
  6.0172812899999997  1.3384109099999999  5.8200591399999997
 10.4589170500000002  1.0620505800000000  5.9148059699999997
  0.0701502700000000  4.6240452000000003  5.8170907700000001
  4.1094035699999996  4.8302153299999997  5.8858900600000004
  8.3240266999999992  4.8858483699999997  5.9771066800000003
 -2.0755365700000001  8.5035025399999995  5.9576748000000004
  2.0731727499999999  8.4306453200000000  5.9203646799999996
  6.2844486100000001  8.4685613499999999  5.9204651400000001
  2.0425436499999998  1.2292250899999999 12.6625391500000006
  6.1987592600000001  1.2410843100000000 12.5622196200000005
 10.3462964900000003  1.1746824800000000 12.6262403200000008
  0.0170708800000000  4.7424353600000000 12.6611136599999998
  4.1399219499999997  4.7815666900000000 12.6234799899999999
  8.2334703000000005  4.8046144000000002 12.6276366200000005
 -2.2050914399999999  8.4486963500000005 12.4985628200000001
  2.0630145600000001  8.3564713400000006 12.6260437099999994
  6.3898081500000004  8.3533386600000004 12.6257548400000008
