Cd S 
 1.0000000000000000
    12.3977854500000007    0.0000000000000000    0.0000000000000000
    -6.1988927199999999   10.7367971499999992    0.0000000000000000
     0.0000000000000000    0.0000000000000000   13.4479464199999992
 Cd  S  
  36  36
Cartesian
 -0.0078934800000000  2.2778876399999999  0.0566984200000000
  4.2582930299999999  2.5272247399999999  0.0052245300000000
  8.2790465999999991  2.3350953300000001  0.0511245200000000
 -2.0748561799999998  5.9880453400000002 13.4476373900000006
  2.1262443800000002  5.9345284200000004  0.0923056300000000
  6.1744754799999999  5.9337932699999998  0.0186813500000000
 -4.2054302300000002  9.6999450800000009 13.4252918700000006
 -0.0593286700000000  9.5809157599999999 13.4226365800000007
  4.2177757099999997  9.5328251099999992  0.0309633600000000
 -0.0792667300000000  2.2094121000000002  6.7104492799999997
  4.1182962500000002  2.2125086000000000  6.7195630900000003
  8.2657341700000000  2.3874897200000000  6.7281781100000000
 -2.0748917599999999  5.9685784499999999  6.7240302300000003
  2.1793956099999998  5.9381328699999996  6.6669880700000004
  6.0968954000000002  5.9807662199999996  6.7638938399999997
 -4.1339800599999998  9.5417063800000008  6.7268599499999997
 -0.0056160100000000  9.5265222900000008  6.7981740000000004
  4.1286953300000002  9.4735905299999992  6.5891091299999998
  2.2302862200000000  1.1868373999999999  3.5271272499999999
  6.2121506699999998  1.2140553900000000  3.3785473499999998
 10.3558446499999999  1.2215494600000001  3.3690454299999999
  0.0157508300000000  4.7088754599999998  3.5512271800000001
  4.1649576100000001  4.7663323499999999  3.4572246899999999
  8.3498274800000001  4.6843343600000003  3.3262165499999998
 -1.9834694300000000  8.3565485400000004  3.4370488699999999
  2.0762507499999998  8.2836093900000005  3.3899235000000001
  6.0868875999999998  8.2011535799999997  3.3935835000000001
  2.1867920700000001  1.1155826400000000 10.2256190199999999
  6.1306832699999996  1.4278173999999999 10.1008551600000001
 10.3665359400000003  1.4203978399999999 10.1467975199999998
  0.0461953900000000  4.6738225000000000 10.2723144600000005
  4.2549330500000000  4.9472256999999997 10.0116978299999992
  8.3143258699999993  4.8410496199999997 10.0938229600000007
 -1.8703611499999999  8.4031104800000005  9.9931415500000007
  2.0443386600000002  8.2846387299999993 10.0739780999999997
  6.1165544499999998  8.3634369399999997 10.1974857900000000
  0.1094705900000000  2.3370578100000001  2.4416918600000002
  4.0547620599999998  2.5584123399999998  2.6197395700000001
  8.4201337100000000  2.4392260499999998  2.6102710099999999
 -2.1892488700000001  5.9174954499999997  2.5719354900000000
  1.9451103199999999  5.7731673499999996  2.6099756900000002
  6.0700158300000000  6.1322294599999996  2.4671180200000000
 -4.1473999199999998  9.6544051700000004  2.6650337400000002
 -0.0333969000000000  9.4963915100000005  2.5288830999999998
  4.2036267399999998  9.4747751200000003  2.5044988799999999
 -0.0339734600000000  2.3709578499999999  9.2492151400000004
  4.1662529299999997  2.4165235300000001  9.3081936600000006
  8.4261741000000008  2.4559036299999999  9.2616257100000006
 -2.0705802400000000  5.9768102399999998  9.2633122199999995
  2.2223503999999998  5.8279437999999999  9.3050230400000000
  6.2027244499999998  5.9469973800000000  9.2775624699999995
 -3.9881613400000000  9.4463471899999991  9.3226987500000007
  0.0661697700000000  9.6027035200000004  9.3545830300000006
  3.9790551100000000  9.5105413199999997  9.2823863800000002
  2.0374775399999998  1.2005967099999999  5.8425055099999996
  6.2224769699999998  1.0612019500000001  5.8211794799999996
 10.4626887600000007  1.0156705200000000  5.9687404400000004
 -0.0229795400000000  4.7214784200000004  6.0479349899999999
  4.1861647000000000  4.7140857000000000  5.8526191699999996
  8.2553071399999993  4.7505458300000001  5.7084183199999998
 -2.0442746199999999  8.3533646499999996  5.8848881899999999
  2.0903143000000002  8.3521670700000001  5.7626572500000002
  6.2104834799999997  8.2251204799999993  5.7356590199999999
  2.0651245999999999  1.1398077600000001 12.5931110299999993
  6.3396558199999999  1.3486250399999999 12.5760504300000004
 10.3982842499999997  1.1696945999999999 12.4837758599999997
 -0.0304908600000000  4.8216213799999998 12.6274078700000008
  4.1463232400000001  4.7674496199999998 12.5925259100000009
  8.4558150399999992  4.8003649900000003 12.7683050900000001
 -2.0610317800000000  8.3901887500000001 12.6810593899999997
  1.9394575500000000  8.2949637700000007 12.6881379899999995
  6.1852285699999996  8.3560580800000004 12.7796005600000004
