Cd S 
 1.0000000000000000
    12.3977854500000007    0.0000000000000000    0.0000000000000000
    -6.1988927199999999   10.7367971499999992    0.0000000000000000
     0.0000000000000000    0.0000000000000000   13.4479464199999992
 Cd  S  
  36  36
Cartesian
  0.1371143000000000  2.4834838800000001 13.3668005700000005
  4.1910845099999996  2.3184887299999999  0.1492493400000000
  8.3949542400000006  2.3081345899999999 13.2824733399999992
 -2.1190897999999998  6.1675395699999997 13.4160318899999993
  1.9492681700000001  6.0960750199999998 13.4274865800000001
  6.1742991800000002  5.9729089200000001 13.4410368699999996
 -3.9588925800000001  9.6669244899999995 13.3382716899999991
 -0.0101906000000000  9.5706182099999992 13.4136985299999996
  4.0681763399999999  9.6402066099999999 13.2505735999999992
 -0.0018955000000000  2.3857873999999999  6.7275230600000002
  4.0258542100000003  2.5288963500000001  6.7681281999999996
  8.2817555200000008  2.3978695200000000  6.7298786100000001
 -2.0153164900000000  6.0547737799999997  6.7333584000000002
  2.1000962099999998  5.9784090599999997  6.7289221899999996
  6.0262442099999998  6.0365789899999998  6.7318253300000004
 -4.2303064499999996  9.6786654999999993  6.7228339000000004
 -0.1332264100000000  9.7417839100000005  6.7561912599999996
  4.1156701499999997  9.5021687700000008  6.7573175299999999
  2.0834977499999998  1.3224031000000001  3.3899381599999998
  6.1551972900000003  1.1608265400000000  3.3980011499999998
 10.3435034600000009  1.2334510900000000  3.6054702800000000
  0.0463403800000000  4.8466118099999997  3.3708762399999999
  4.1647203099999999  4.7241687399999996  3.4448714100000002
  8.2129632499999996  4.8091019499999996  3.3650050000000000
 -2.1539523699999998  8.5656839500000004  3.3642196400000000
  1.9817184999999999  8.3457275600000003  3.4088539099999999
  6.3794697600000001  8.3741010500000002  3.2590661100000000
  2.0412720700000002  1.2687935200000000 10.2949148099999999
  6.3674094400000003  1.2341135500000000 10.0745993899999995
 10.4568025999999996  1.2980614900000000 10.0511593500000007
 -0.0102225900000000  4.9108877599999996 10.0531670000000002
  4.1229569499999998  4.7461281700000004 10.0847749199999992
  8.2893694300000007  4.7529626800000004 10.0632748799999998
 -2.1864216200000000  8.4130269900000005 10.1218694599999992
  1.9942423100000000  8.3799686100000006 10.0722667099999992
  6.1707362400000001  8.3118996700000007 10.0259170199999996
 -0.1122554400000000  2.3552267200000001  2.6632557800000001
  3.9887440399999998  2.2524253200000000  2.3890655999999999
  8.2257262699999991  2.3082390600000000  2.4860345800000001
 -1.9770931300000001  5.8936874599999998  2.4501171300000002
  2.0309748399999998  5.9624481700000000  2.5390898200000001
  6.1720717900000004  5.9819213900000001  2.4779194100000002
 -4.1186624700000003  9.5210781999999998  2.5222364499999999
  0.0748376200000000  9.6912697500000000  2.4066520200000001
  4.2284464799999997  9.5659122700000001  2.4218819599999999
 -0.0007161600000000  2.4739441300000000  9.0709844000000004
  4.0717358099999998  2.4795152400000000  9.0552657599999993
  8.2453967200000005  2.3326949099999998  9.2554081900000007
 -2.1197012000000002  5.9592705099999996  9.2337046800000007
  2.0681429100000002  5.9668609899999998  9.2763639900000001
  6.1092035500000001  5.8493965699999997  9.0963483000000007
 -4.0345902999999996  9.3623150000000006  9.1435246400000008
  0.0922585600000000  9.6212010899999996  9.3504288199999994
  4.1351118600000003  9.4200202399999995  9.1432684500000008
  1.9494370200000000  1.2464795500000001  5.9700834900000004
  6.2495797099999999  1.2837163800000000  5.8369153300000001
 10.2634546100000001  1.0465473999999999  5.7865266799999997
 -0.0808876100000000  4.5946611700000002  5.9250666200000000
  3.9808821700000001  4.9085857900000001  5.7541909599999999
  8.1291777100000004  4.7480101200000000  5.9430704600000004
 -1.9454575800000000  8.4710637799999997  5.8655570399999997
  2.0891585799999999  8.1643074700000007  6.0190555300000002
  6.2071138200000000  8.3642724800000003  5.9252894500000002
  2.0548553300000001  1.2609910900000001 12.5829767900000000
  6.1102929399999999  1.3136011800000000 12.7904975699999994
 10.3267394199999991  1.1928541900000000 12.6180654400000005
  0.0040692700000000  4.7719966600000001 12.6240804400000002
  4.0900728099999997  4.7432887199999998 12.6524648899999992
  8.2602396000000002  4.7732715399999996 12.6190408200000004
 -2.0411224799999999  8.4942348600000006 12.6170592700000004
  2.1321070500000001  8.2725669199999992 12.5061110200000005
  6.1588239500000004  8.3720871500000005 12.6231000899999994
