Cd S 
 1.0000000000000000
    12.3977854500000007    0.0000000000000000    0.0000000000000000
    -6.1988927199999999   10.7367971499999992    0.0000000000000000
     0.0000000000000000    0.0000000000000000   13.4479464199999992
 Cd  S  
  36  36
Cartesian
 -0.0122935200000000  2.4020772699999999 13.4320488000000005
  3.9126618099999999  2.4181082800000002  0.0675066700000000
  8.2853691000000005  2.5231121100000000 13.2453851100000009
 -1.9376930900000000  6.0745234699999999 13.4344475100000000
  1.9631122800000000  6.0275783299999999 13.3251786400000007
  6.1165054100000003  6.1378031499999999 13.4232058300000006
 -4.1340982700000000  9.5266348099999991 13.4478639799999993
  0.0935057100000000  9.5094667800000003  0.0517920800000000
  4.1921875499999999  9.5796583799999997 13.3107750800000009
 -0.0110704800000000  2.4294376400000002  6.7364627199999996
  4.1211156300000003  2.3953549600000001  6.6864559899999998
  8.2497236699999998  2.3872253799999998  6.7246840700000003
 -1.8869307300000000  6.0820491099999998  6.8454720399999998
  2.0424343000000000  5.9132720299999999  6.6735701699999996
  6.2012396900000004  6.0003210400000002  6.6840178799999999
 -4.0750934299999999  9.5622752900000005  6.8004071699999997
  0.1542156200000000  9.5632348399999998  6.7430843600000001
  4.0720712900000002  9.5446822999999998  6.6947467899999999
  1.9754065400000000  1.1930171800000000  3.2595230700000002
  6.3641376599999999  1.2457455900000001  3.3161753699999998
 10.2682156700000000  1.2317437300000000  3.3239177500000001
  0.0241920500000000  4.6771938500000001  3.2352633800000001
  4.1262835200000003  4.8089562600000004  3.3431157699999998
  8.4209850700000004  4.6412293399999998  3.4161972899999999
 -1.9751598200000000  8.3777876399999993  3.3303520600000001
  2.0962383299999998  8.3090644099999995  3.4171195499999998
  6.1705786700000003  8.3463750999999995  3.3298625500000001
  2.0707305100000002  1.2514702300000000 10.1039632499999996
  6.3208519100000000  1.3102460400000000 10.0039479199999999
 10.3101226700000002  1.2338842200000000 10.0377036099999994
 -0.1073294200000000  4.7608014000000001 10.2132639899999997
  4.2653554900000001  4.8029523500000000 10.0880334900000008
  8.3220851400000004  4.6823191700000004 10.0396994199999998
 -1.8524881300000000  8.3092586399999995  9.9663841699999995
  2.0798456100000000  8.1957392299999992  9.9384552100000008
  6.1315169599999999  8.1840405199999999 10.1214777199999997
  0.0504594800000000  2.2948301999999998  2.4531328299999999
  3.9441012299999998  2.5390181400000000  2.5061471900000001
  8.1817456800000006  2.3189757499999999  2.6150103400000000
 -2.0173174999999999  5.9583715100000001  2.6824976399999998
  2.2259284699999999  6.0158335599999999  2.6670230899999998
  6.2179912699999997  5.8538216299999997  2.3181879300000001
 -4.1294911299999999  9.6367952100000007  2.5023001400000000
  0.0065755400000000  9.5459587900000002  2.5339906299999999
  4.1690524099999999  9.4193096799999996  2.5219736799999999
  0.0854663000000000  2.4559301499999999  9.2439985500000006
  4.2605896000000003  2.4152665700000000  9.2909703399999994
  8.2661926999999995  2.3849327599999999  9.2582898199999999
 -2.1330612400000000  6.0224126399999998  9.2633171999999995
  2.2036913700000000  5.8058339400000003  9.1970790699999991
  6.1146864100000000  5.9097894399999999  9.2999223700000009
 -4.2965581700000000  9.5766469200000000  9.2307162799999993
 -0.0070702000000000  9.5294915499999995  9.1321884200000003
  4.1649012599999997  9.5004160899999999  9.3264457600000004
  2.1632384999999998  1.0785651700000001  5.9030032500000003
  6.1914322999999998  1.2485335000000000  5.9743201299999997
 10.3440477200000007  1.2899769000000001  5.9419759299999999
  0.0907568100000000  4.9397838099999998  6.0186395800000003
  4.2198065900000001  4.6900462300000001  5.8530175000000000
  8.3333059499999997  4.8472482899999996  6.0964471099999997
 -2.1064245300000000  8.3155360100000006  5.8948521800000000
  2.0683955699999999  8.3393427100000004  5.8967699900000001
  6.0285853999999999  8.3777601500000003  5.7417115399999998
  2.0676065100000001  1.1849594200000000 12.6037947500000005
  6.1882959700000004  1.1917430400000000 12.6105039300000001
 10.3765546499999992  1.1571628199999999 12.5522234899999994
 -0.1067173500000000  4.7089931299999996 12.5828147399999999
  4.0648648300000003  4.7407858599999999 12.6664143100000004
  8.2662455200000000  4.7668976499999998 12.6123359500000003
 -2.0662069199999999  8.3489629900000004 12.6183380300000003
  2.0371792499999999  8.3602855900000002 12.6064635000000003
  6.4017381000000002  8.3944847599999992 12.6395634599999998
