Cd S 
 1.0000000000000000
    12.3977854500000007    0.0000000000000000    0.0000000000000000
    -6.1988927199999999   10.7367971499999992    0.0000000000000000
     0.0000000000000000    0.0000000000000000   13.4479464199999992
 Cd  S  
  36  36
Cartesian
  0.0186746000000000  2.3730465800000000 13.4261034600000002
  4.1643632600000000  2.1997619799999999 13.3377273200000008
  8.4471688199999999  2.4356350299999998 13.3697687999999992
 -1.9450389699999999  6.0756468600000000 13.3480234699999993
  1.9980856199999999  6.1502757600000004 13.4085286099999994
  6.2916922000000000  5.7742629299999999 13.4342510300000004
 -4.0642923599999996  9.5467058599999994 13.4327673200000000
 -0.0149558200000000  9.5604199699999999  0.0136456300000000
  3.9513298799999999  9.5933393099999993  0.0129845300000000
 -0.1221164500000000  2.4664679899999999  6.9012207700000001
  4.1334789499999998  2.3858915500000002  6.7246994000000004
  8.2385773199999992  2.3991687800000001  6.7153265800000002
 -2.0816028000000002  5.9865690300000001  6.8129156399999999
  2.0802588900000001  5.9692509999999999  6.7261668400000003
  6.1990381499999998  5.9650355199999998  6.7259339200000001
 -4.1936693800000002  9.7451922000000000  6.6598969700000001
  0.1458625500000000  9.7433844399999998  6.7170046200000000
  4.1572782400000001  9.5755998699999996  6.7282562500000003
  2.1299714000000001  1.2279741500000001  3.5661466000000002
  6.2981542299999997  1.3080801000000000  3.1910978999999999
 10.3756426099999999  1.1815861400000001  3.4263761800000001
  0.1065856200000000  4.8147790400000003  3.2596642700000000
  4.1335886100000003  4.8666337899999998  3.3452815700000000
  8.1191148000000002  4.8236435499999999  3.3657434199999998
 -2.1502014200000001  8.2467796000000000  3.3840678600000000
  2.0364487100000002  8.3137833400000005  3.3967631300000001
  6.2326893400000003  8.3951042699999991  3.4327355800000001
  2.1200466699999998  1.1572200500000001 10.0430700099999992
  6.1657417299999997  1.0067844200000000 10.2323151600000006
 10.3903646700000003  1.3198117700000001  9.9693591300000008
 -0.0510821000000000  4.6919771299999997 10.1945943400000001
  3.9781111999999998  4.8115694900000001 10.2102567600000000
  8.3233107900000007  4.7287792199999998 10.0764249499999998
 -2.0487463799999999  8.3116116099999999 10.0961264600000007
  1.9781925100000000  8.3197124099999993 10.0068161000000000
  6.1226523600000000  8.3037335900000002  9.9582704900000003
  0.0149763400000000  2.3268693400000000  2.5577103800000001
  4.1699271400000004  2.4062280100000000  2.4536082200000000
  8.2643003700000008  2.4085261199999999  2.5033987000000000
 -1.9036021000000001  5.8029964200000004  2.5978826300000000
  2.0700699600000001  5.8911748399999997  2.6499997400000002
  6.1103112900000003  5.9919410800000001  2.4183661200000000
 -4.2363429999999997  9.5012969399999996  2.3980336400000000
  0.2200720400000000  9.6281690500000003  2.4669695599999999
  4.0733937700000000  9.6979075600000009  2.3635461100000001
  0.0669980700000000  2.3735252299999998  9.2625382900000002
  4.1213391599999998  2.4067065500000000  9.2877328800000001
  8.2561478299999997  2.3925978600000000  9.2522064999999998
 -2.0676345299999999  5.9643643600000003  9.2632282999999997
  2.0901767499999999  5.8032002100000000  9.4427797699999996
  6.3433766399999998  5.7997743100000001  9.2728154800000002
 -4.2437209800000000  9.3570400199999995  9.2606125400000003
 -0.0660557700000000  9.4238949400000003  9.0839358400000005
  4.1454361200000003  9.5512127400000004  9.2516193599999994
  2.0690607100000000  1.3855755100000000  5.9377263800000000
  6.0852915100000002  1.3185174500000001  5.8202168800000003
 10.3191139100000004  1.1942055199999999  5.8928158899999996
 -0.2273461200000000  4.6927615600000001  5.8696569099999998
  4.2527194200000000  4.7273210600000004  6.0942420500000001
  8.2088310000000000  4.7907674800000004  5.9213009300000001
 -2.0034355100000001  8.1651824099999999  5.8918526099999999
  2.0626859000000000  8.3485669100000006  5.8939382499999997
  6.1726849300000000  8.3601373100000007  5.8685712600000004
  2.0542651900000002  1.0653597699999999 12.5042245399999992
  6.2169527699999998  1.2113751699999999 12.5633137399999999
 10.2873858699999996  1.1042028200000000 12.5869571199999992
 -0.1376376100000000  4.9116352499999998 12.7500484299999997
  4.2185723299999998  4.6616002600000002 12.4904578799999992
  8.2953824199999993  4.6611715399999998 12.7455229299999999
 -1.9362558800000000  8.4003728100000004 12.5117384499999993
  2.1184379899999999  8.3774100300000001 12.6499294100000004
  6.2126881799999998  8.3354202399999995 12.6158586400000008
