Cd S 
 1.0000000000000000
    12.3977854500000007    0.0000000000000000    0.0000000000000000
    -6.1988927199999999   10.7367971499999992    0.0000000000000000
     0.0000000000000000    0.0000000000000000   13.4479464199999992
 Cd  S  
  36  36
Cartesian
  0.0376687500000000  2.4694005300000001  0.0154901500000000
  4.2746824700000001  2.4701675700000001 13.3443364500000001
  8.3562678199999993  2.3666207199999998 13.3194127000000009
 -2.0734536800000001  5.9555591200000002  0.0821770400000000
  2.0466799199999999  5.9929135100000002 13.3687452800000006
  6.2407772200000000  5.8874296299999997  0.0567955200000000
 -4.0723974099999998  9.5229427500000003  0.0079032200000000
  0.0469130400000000  9.5175826200000007  0.1461978700000000
  4.0951551000000004  9.5353556699999995  0.0008448000000000
  0.0024211600000000  2.3168157200000001  6.8341157900000002
  3.9790129599999999  2.3824310799999999  6.5812431599999996
  8.1058112300000005  2.4422668199999999  6.7835962900000002
 -2.1032284500000000  6.0452642000000001  6.7507086699999999
  2.2189059300000000  6.0816120099999997  6.6078926899999999
  6.0419677600000004  6.0854884299999998  6.7463211400000000
 -4.1517764000000001  9.6090826800000002  6.6753658800000002
 -0.0216236500000000  9.6894093800000007  6.7760064099999999
  4.1089545799999998  9.6603553899999994  6.7466398600000002
  2.0727471899999999  1.2239671700000001  3.2568150600000001
  6.1930193999999998  1.1422904300000001  3.2397135700000002
 10.4828144600000002  1.1414527400000001  3.3414284599999999
  0.0025695100000000  4.8897338000000001  3.4383765899999998
  4.0613998400000000  4.7963632799999996  3.1900934699999999
  8.4526088399999999  4.6635588700000001  3.3906085400000001
 -2.1113491799999999  8.2854190800000005  3.3299963600000000
  2.0958353399999998  8.3654309799999993  3.2184409399999998
  6.2877689200000004  8.3157684599999993  3.3800766499999999
  2.1157496600000001  1.1178698000000000  9.9032640799999996
  6.2061756800000003  1.0980060800000000 10.0442894700000007
 10.3098101199999999  1.2490986900000001 10.0599233800000007
 -0.0161976400000000  4.8197107700000004 10.0746564099999993
  4.3294798200000004  4.6453728800000000 10.0631480599999996
  8.2572548900000005  4.8068673100000003 10.0479638500000004
 -1.9876797799999999  8.1950786000000004  9.9826610299999992
  2.2196039200000000  8.4327071100000008 10.0490105100000005
  6.1986548199999998  8.3508224999999996 10.0873253199999997
 -0.1000134900000000  2.1961780399999999  2.4741490100000001
  4.1402162100000002  2.3779288200000002  2.5331713800000002
  8.1562289299999993  2.5818479800000000  2.4932292299999999
 -2.1349499800000000  6.0906648499999996  2.4891315100000000
  2.0375117000000000  6.1128788600000004  2.5924828700000000
  6.2428604800000000  5.9713103199999997  2.4328523899999999
 -4.1344675400000002  9.5359031400000003  2.5359368099999999
  0.0025348600000000  9.5383412500000002  2.5351486300000001
  4.0424944600000003  9.3891794399999995  2.6526971300000000
  0.0835703100000000  2.5188413399999998  9.1997623399999995
  4.1302610399999997  2.4197308199999998  9.2995700299999999
  8.3637248999999994  2.2313738999999999  9.1165965999999994
 -2.0805676499999999  5.9022612299999997  9.1111388899999994
  2.0683907399999999  5.9321092000000002  9.2820630899999994
  6.1432597700000002  5.9753671099999996  9.2306745899999996
 -4.1075417200000004  9.5747556300000003  9.2439693700000003
  0.0869063100000000  9.6384289200000008  9.3483092899999995
  3.8914134300000001  9.5410812800000002  9.2445344499999997
  2.1462804400000000  1.1446020600000000  6.0912668300000004
  6.1610315599999996  1.1972571400000001  5.9425862000000000
 10.3209053300000004  1.2251986800000001  5.8747698200000000
  0.0164619700000000  4.7817673599999999  5.9551309799999999
  4.1339509300000001  4.7741009600000002  5.8951757300000001
  8.2452164000000003  4.7525573600000000  5.9329814100000000
 -1.9932780000000001  8.3524656600000000  5.8946636400000001
  2.1869262100000002  8.1466837699999992  5.8767334900000003
  6.2797500900000003  8.4901582100000006  5.8144045400000000
  2.0754439599999999  1.2028693699999999 12.6297557400000002
  6.1428339100000002  1.2246231900000000 12.4721233500000004
 10.3836874699999999  1.2024132700000001 12.6523196500000008
 -0.0068577700000000  4.6114046599999998 12.5466043999999997
  4.0267012900000001  4.7373927100000000 12.6117800100000004
  8.1222370599999998  4.7012799200000002 12.6129088300000003
 -2.0370064200000000  8.3528376899999994 12.5063033299999997
  2.0491475800000001  8.3710402100000003 12.6459629400000004
  6.0902332699999997  8.4199132500000005 12.5300900500000001
