Cd S 
 1.0000000000000000
    12.3977854500000007    0.0000000000000000    0.0000000000000000
    -6.1988927199999999   10.7367971499999992    0.0000000000000000
     0.0000000000000000    0.0000000000000000   13.4479464199999992
 Cd  S  
  36  36
Cartesian
 -0.0994009200000000  2.3036623899999999  0.0002124800000000
  4.1109848400000004  2.5064242299999999 13.4119797500000004
  8.3033560600000005  2.2980527400000001 13.3687811799999992
 -2.0745888199999998  5.9493113700000002 13.4443570300000008
  2.0763085800000001  5.9736629700000003 13.4227534399999993
  6.2066352100000000  5.8972855800000001  0.0336824000000000
 -4.1860533599999998  9.4725388600000002 13.3800583599999996
  0.0344587200000000  9.5414666199999996  0.0122143700000000
  4.1207727099999998  9.6060670300000002  0.0868250500000000
 -0.0806410200000000  2.3613450899999999  6.7390534700000000
  4.1098902400000004  2.2184448600000000  6.8065850200000000
  8.2446878800000007  2.4173862300000000  6.7736770899999996
 -1.9920389100000000  5.9874285100000000  6.6580805600000001
  1.9616537999999999  5.8218980199999999  6.8828116100000001
  6.0449504799999998  5.9621968200000000  6.6321308600000002
 -4.1176501300000004  9.5680163599999997  6.5988779900000001
 -0.0698879900000000  9.7140350800000004  6.8715981800000003
  4.0925314799999999  9.5545756100000006  6.7909213900000003
  2.0698506399999999  1.1827162899999999  3.3541896200000001
  6.1474018700000004  1.3294272199999999  3.3765761500000000
 10.2641252099999996  1.1000744099999999  3.3671568000000001
  0.0968425100000000  4.7542077200000001  3.5006575299999998
  4.0863252699999997  4.7969895600000001  3.4043846200000001
  8.0554325799999997  4.7828456499999996  3.3760206099999999
 -2.0961157699999999  8.3968092700000003  3.5318472100000000
  2.1895696700000000  8.4772798500000004  3.3492200699999999
  6.1913530200000002  8.3412414100000003  3.3543610799999999
  2.0418673500000000  1.2568422800000001  9.9860189800000008
  6.2043508500000000  1.1873823999999999 10.0984181300000007
 10.2173881000000009  1.2819013200000000 10.2550091099999996
 -0.0438655300000000  4.8578858800000004 10.1189153500000000
  4.0802072100000002  4.7678155300000000 10.0913319999999995
  8.2821996099999993  4.7704249000000001 10.0116042400000005
 -1.9086392500000000  8.3538903199999996 10.1072449599999992
  2.0995602000000000  8.3324074899999996 10.2213025000000002
  6.3625615399999997  8.5041425600000000 10.0466023799999995
  0.0535408300000000  2.3158513400000000  2.5254554800000002
  4.0148746700000002  2.3802029800000000  2.5145279500000002
  8.3083098399999997  2.5370529899999998  2.6226830600000000
 -2.1426173300000002  5.8476328300000002  2.5194377999999999
  2.0679601600000002  6.0117955600000004  2.5036749199999999
  6.3571624199999999  5.8622600000000000  2.5540076300000001
 -4.1284871599999997  9.7609913899999992  2.6066418100000002
 -0.0150076400000000  9.5206347699999991  2.6685946199999999
  4.1340749099999998  9.4787872400000008  2.4855862200000001
 -0.0839974100000000  2.3909366599999999  9.2780357000000002
  4.0033384600000002  2.5909402199999998  9.2448909500000003
  8.2688582900000007  2.3087419699999998  9.2382521099999995
 -2.0841004000000001  5.9925622000000001  9.1589811700000006
  2.1027606799999998  5.9569480300000004  9.3852864399999998
  6.1576406500000003  5.9228546199999998  9.2925756199999991
 -4.1488587700000004  9.6157754600000001  9.2499409299999993
 -0.0538662000000000  9.7072998899999998  9.2066564199999998
  3.9697788400000000  9.6427181599999994  9.2215411500000002
  1.9739547000000000  1.3295904199999999  6.0651244300000000
  6.1794666400000002  1.2446432400000000  5.9113347899999997
 10.4516290699999992  0.9866257600000000  5.8935859199999996
  0.0620590400000000  4.8663411099999996  5.8452049099999996
  4.1205478700000002  4.8138585699999998  5.9006653199999999
  8.2030867999999995  4.7205111400000002  5.9373306100000001
 -2.0673664899999999  8.2585134199999999  5.7917750100000003
  1.9196326900000000  8.2259700799999997  5.8470357200000000
  6.3065729499999996  8.2092501000000002  5.9244002699999996
  2.0631058699999998  1.4377201600000000 12.5964527099999994
  6.2471621400000004  1.2440617300000001 12.6131724100000007
 10.3699269199999993  1.1585051399999999 12.6284511599999991
 -0.0155144600000000  4.7642707800000004 12.6288274299999994
  4.0635102500000002  4.6210465200000002 12.4631339400000005
  8.3012234500000002  4.6180397900000001 12.6022546900000005
 -2.0385937699999999  8.3474099099999997 12.6398215300000007
  2.1836350300000000  8.4903543700000004 12.6418472000000008
  6.2798845500000002  8.1885060700000007 12.7019697399999991
