Cd S 
 1.0000000000000000
     6.2532571492664166  -10.8309590953227506    0.0000000000000000
     6.2532571492664166   10.8309590953227506    0.0000000000000000
     0.0000000000000000    0.0000000000000000   13.5592348200000004
 Cd  S  
  36  36
Direct
  0.2222222222222220  0.1111111111111110  0.2501121850000000
  0.2222222222222221  0.7777777777777778  0.7501121850000000
  0.1111111111111111  0.8888888888888888  0.5001121849999995
  0.5555555555555555  0.7777777777777778  0.2501121850000000
  0.4444444444444443  0.8888888888888886  0.5001121849999995
  0.5555555555555554  0.1111111111111110  0.2501121850000000
  0.4444444444444444  0.2222222222222220  0.0001121849999995
  0.8888888888888887  0.4444444444444443  0.7501121850000000
  0.7777777777777778  0.5555555555555554  0.0001121849999995
  0.5555555555555554  0.1111111111111110  0.7501121850000000
  0.4444444444444444  0.2222222222222220  0.5001121849999995
  0.5555555555555554  0.4444444444444443  0.2501121850000000
  0.4444444444444444  0.5555555555555554  0.0001121849999995
  0.7777777777777778  0.2222222222222220  0.5001121849999995
  0.8888888888888888  0.1111111111111110  0.7501121850000000
  0.8888888888888887  0.4444444444444443  0.2501121850000000
  0.5555555555555554  0.4444444444444443  0.7501121850000000
  0.7777777777777778  0.5555555555555554  0.5001121849999995
  0.2222222222222221  0.7777777777777778  0.2501121850000000
  0.1111111111111110  0.2222222222222221  0.0001121849999995
  0.7777777777777778  0.8888888888888888  0.5001121849999995
  0.8888888888888888  0.7777777777777778  0.7501121850000000
  0.2222222222222220  0.1111111111111110  0.7501121850000000
  0.1111111111111110  0.2222222222222221  0.5001121849999995
  0.5555555555555555  0.7777777777777778  0.7501121850000000
  0.1111111111111111  0.8888888888888888  0.0001121849999995
  0.8888888888888888  0.1111111111111110  0.2501121850000000
  0.1111111111111110  0.5555555555555554  0.0001121849999995
  0.7777777777777778  0.8888888888888888  0.0001121849999995
  0.8888888888888888  0.7777777777777778  0.2501121850000000
  0.2222222222222220  0.4444444444444443  0.7501121850000000
  0.1111111111111110  0.5555555555555554  0.5001121849999995
  0.7777777777777778  0.2222222222222220  0.0001121849999995
  0.4444444444444443  0.8888888888888886  0.0001121849999995
  0.2222222222222220  0.4444444444444443  0.2501121850000000
  0.4444444444444444  0.5555555555555554  0.5001121849999995
  0.8888888888888888  0.1111111111111110  0.4383878150000000
  0.7777777777777778  0.2222222222222220  0.1883878150000000
  0.8888888888888887  0.4444444444444443  0.4383878150000000
  0.7777777777777778  0.2222222222222220  0.6883878150000000
  0.7777777777777778  0.5555555555555554  0.1883878150000000
  0.8888888888888887  0.4444444444444443  0.9383878150000000
  0.7777777777777778  0.5555555555555554  0.6883878150000000
  0.8888888888888888  0.7777777777777778  0.4383878150000000
  0.7777777777777778  0.8888888888888888  0.1883878150000000
  0.8888888888888888  0.1111111111111110  0.9383878150000000
  0.4444444444444443  0.8888888888888886  0.6883878150000000
  0.4444444444444444  0.5555555555555554  0.1883878150000000
  0.4444444444444443  0.8888888888888886  0.1883878150000000
  0.2222222222222220  0.1111111111111110  0.4383878150000000
  0.1111111111111110  0.2222222222222221  0.1883878150000000
  0.2222222222222220  0.1111111111111110  0.9383878150000000
  0.1111111111111110  0.2222222222222221  0.6883878150000000
  0.2222222222222220  0.4444444444444443  0.4383878150000000
  0.1111111111111110  0.5555555555555554  0.1883878150000000
  0.2222222222222220  0.4444444444444443  0.9383878150000000
  0.1111111111111110  0.5555555555555554  0.6883878150000000
  0.2222222222222221  0.7777777777777778  0.4383878150000000
  0.1111111111111111  0.8888888888888888  0.1883878150000000
  0.2222222222222221  0.7777777777777778  0.9383878150000000
  0.1111111111111111  0.8888888888888888  0.6883878150000000
  0.5555555555555554  0.1111111111111110  0.4383878150000000
  0.4444444444444444  0.2222222222222220  0.1883878150000000
  0.5555555555555554  0.1111111111111110  0.9383878150000000
  0.4444444444444444  0.2222222222222220  0.6883878150000000
  0.5555555555555554  0.4444444444444443  0.4383878150000000
  0.8888888888888888  0.7777777777777778  0.9383878150000000
  0.5555555555555554  0.4444444444444443  0.9383878150000000
  0.4444444444444444  0.5555555555555554  0.6883878150000000
  0.5555555555555555  0.7777777777777778  0.4383878150000000
  0.5555555555555555  0.7777777777777778  0.9383878150000000
  0.7777777777777778  0.8888888888888888  0.6883878150000000
