Cd S 
 1.0000000000000000
    12.3977854500000007    0.0000000000000000    0.0000000000000000
    -6.1988927199999999   10.7367971499999992    0.0000000000000000
     0.0000000000000000    0.0000000000000000   13.4479464199999992
 Cd  S  
  36  36
Cartesian
 -0.0253123100000000  2.3233458400000000 13.4091144000000000
  4.1722573599999997  2.3068635700000000 13.3676358200000003
  8.2889944000000000  2.3950400500000000  0.0162457900000000
 -2.0983654199999999  5.9900637500000000  0.0476850700000000
  2.0660791700000001  5.9651523400000004  0.0019651500000000
  6.2120098300000004  5.8559627599999997  0.1607074000000000
 -4.2005494099999998  9.5041352099999994  0.0088408100000000
 -0.1494824500000000  9.5433355800000008  0.0911569000000000
  4.1755422199999996  9.5471423099999999  0.0165283300000000
 -0.0836895100000000  2.3164197500000001  6.7761761199999997
  4.1246848900000002  2.4125217100000000  6.7241161600000003
  8.4857426700000005  2.3822540299999999  6.6462002399999998
 -1.9575614100000001  5.9757075799999999  6.8944721900000001
  2.0391072299999999  6.0795566699999997  6.9131925399999998
  6.1698278599999998  5.9197668200000004  6.7887355600000001
 -4.1821988899999996  9.4704155500000002  6.6113092699999996
 -0.0057458100000000  9.4230303000000006  6.6273793000000003
  4.1357945500000000  9.4933501000000007  6.7798740400000002
  2.1254070999999999  1.1397622300000001  3.2190490500000002
  6.2447274000000004  1.2035199100000000  3.3338034699999999
 10.2782306099999996  1.2615417799999999  3.4082358400000001
  0.1606860300000000  4.8870521800000004  3.3110537199999999
  4.0865982699999996  4.6423064600000004  3.4274556500000002
  8.2985005300000001  4.8401293699999997  3.2651120400000000
 -2.0394925499999998  8.4674182099999999  3.4017657600000000
  2.0426020399999998  8.2423642000000008  3.2631844100000000
  6.2668439400000002  8.4435196000000001  3.3286578900000001
  2.0965355099999998  1.0121446599999999 10.0941632000000006
  6.2042576199999999  1.2115006800000001 10.1577917499999995
 10.3338324400000001  1.1896737399999999 10.0913486799999994
 -0.0852378700000000  4.7549158100000000 10.1680447399999991
  4.0795139899999997  4.6374367799999998 10.1365681999999993
  8.2908969700000004  4.7744830800000004 10.0956927699999994
 -2.1107821100000002  8.3447083200000005 10.1079498999999995
  2.0928609900000001  8.2812293700000001 10.3258873199999996
  6.1350496500000000  8.4769565599999996  9.9310014100000004
 -0.0282683100000000  2.4018279599999999  2.5122716600000001
  4.2922598699999996  2.2004193900000000  2.5522992000000002
  8.2038219199999993  2.3544230700000002  2.5518910500000000
 -2.1363111899999998  6.0632841900000001  2.6477192399999998
  2.0617700100000000  5.9716291000000004  2.5624563000000000
  6.1341333899999997  6.0903174099999999  2.5829026900000001
 -4.1365520399999998  9.4199778300000006  2.6404986300000002
  0.0040395100000000  9.5448324000000007  2.5533311900000002
  4.1119271399999997  9.5767693200000004  2.5249050600000000
  0.0069373100000000  2.3966337200000001  9.2396929199999995
  4.1469412700000001  2.3909643699999998  9.2623913000000009
  8.4120925100000008  2.3180565700000000  9.1381394100000009
 -1.9310863700000001  6.0090843100000004  9.2708881200000004
  2.0253426499999998  5.8869974699999998  9.2987211999999992
  6.2053194899999999  5.9589834000000002  9.2405096100000002
 -4.1698490200000000  9.4735851600000007  9.3851418700000000
  0.1076364600000000  9.4535594199999995  9.3073715900000007
  3.9880027800000000  9.4035105899999998  9.1291078999999993
  2.1628451200000001  1.2102414699999999  5.9229873000000000
  6.1860290300000003  1.1984157400000000  5.9067094999999998
 10.2671932300000002  1.2258685499999999  5.8177034599999997
 -0.1771546200000000  4.8512151100000001  5.9843513499999998
  4.2248180199999998  4.6859121300000002  5.9887855400000003
  8.3889133000000005  4.7413090699999998  5.9486128999999996
 -2.1434317400000000  8.3880537400000001  5.9669433900000000
  2.1392221999999999  8.3142277300000007  5.9146065400000003
  6.2186105999999999  8.3231476499999992  5.9018931200000004
  2.0671043400000002  1.1978359599999999 12.6417685199999994
  6.2310820299999996  1.2408837500000001 12.6230398400000006
 10.4090618300000006  1.0808558699999999 12.6684375500000002
 -0.0465829400000000  4.8062153700000003 12.5190624699999997
  4.1861443100000004  4.5840883200000002 12.4656111799999998
  8.1765577700000005  4.8732695599999998 12.6537959600000001
 -2.2120961299999999  8.5053991999999994 12.6236174299999995
  1.9943385199999999  8.3420284099999993 12.6243463100000000
  6.1727900599999996  8.3181508500000003 12.6310336999999997
