Cd S 
 1.0000000000000000
    12.3977854500000007    0.0000000000000000    0.0000000000000000
    -6.1988927199999999   10.7367971499999992    0.0000000000000000
     0.0000000000000000    0.0000000000000000   13.4479464199999992
 Cd  S  
  36  36
Cartesian
  0.1670072800000000  2.3013655800000001  0.0697633700000000
  4.1811649800000001  2.4293731099999998  0.0144964800000000
  8.3167966199999999  2.3835185000000001  0.0219657400000000
 -1.9555055500000000  5.9571083299999996 13.4372314999999993
  2.0945560200000002  5.9269291199999996  0.0188836100000000
  6.2938456900000004  5.9028502500000002  0.0212617400000000
 -4.1159168599999996  9.5336475499999995  0.0475281400000000
  0.1821892400000000  9.5419308800000007 13.2994636100000001
  4.1369029099999999  9.5309235200000000  0.0061884800000000
 -0.0137824900000000  2.3915844200000000  6.6927191099999996
  4.0809585799999999  2.3249475600000000  6.7049092699999999
  8.1568217999999995  2.4811095500000002  6.5783587099999998
 -2.2145558500000000  5.8299570599999999  6.8463393000000003
  2.0278711800000000  5.9234478299999997  6.6972689499999998
  6.2343891400000002  5.9784070199999997  6.7233718199999997
 -4.0438267100000003  9.5726294299999992  6.7164771900000000
  0.0395451000000000  9.5996389099999995  6.7806322300000001
  4.0845526999999997  9.4560432700000003  6.7754187300000002
  2.0526507500000002  1.0250639300000000  3.3010704999999998
  6.1529474000000004  1.2089494000000001  3.4288750800000001
 10.3264423099999991  1.0914355899999999  3.5844021900000000
 -0.0098477400000000  4.8310722300000002  3.5321317699999999
  4.1230747900000004  4.8228263699999996  3.4106103399999999
  8.3238393700000000  4.8212414099999998  3.3830581899999999
 -2.2733021999999998  8.3664728799999999  3.4279343899999999
  1.9895626399999999  8.3562905300000008  3.4444069200000000
  6.1876905200000003  8.3601219600000007  3.3822679899999999
  2.0652042599999998  1.1997101699999999 10.0973612500000005
  6.1637894500000003  1.2275361899999999 10.0093441700000003
 10.3324667600000009  1.1131050199999999 10.0652191799999997
  0.0088649100000000  4.7406725900000000 10.1323183799999992
  4.1550472500000000  4.8082038200000001 10.0938860300000002
  8.3554599799999991  4.8308599699999997 10.1014865399999998
 -1.9264893999999999  8.4871617799999992  9.9691794599999994
  2.0868613900000001  8.4710646399999998 10.0663178799999997
  6.1808795500000002  8.3246085000000001 10.0842595900000003
 -0.1226552000000000  2.2885452000000002  2.5780357399999998
  4.1388048499999996  2.4375953500000000  2.4078935399999999
  8.1012960199999995  2.4474025500000001  2.4084962700000001
 -2.0073516599999999  6.0487156500000001  2.4915982600000000
  2.0225095700000000  6.0429583600000001  2.6107563499999999
  6.3990743800000001  6.0337766799999999  2.4179807100000001
 -4.1875575200000004  9.3673975899999995  2.6320451199999999
 -0.1239761800000000  9.4332549599999993  2.6482757100000001
  4.1327398600000000  9.3681373499999996  2.6228689100000002
 -0.0204194000000000  2.2215328799999998  9.2781531000000008
  4.2510068499999996  2.4639474200000002  9.2128708600000007
  8.2004228900000005  2.4177982000000000  9.2777308400000003
 -2.0317262600000001  6.0546712400000002  9.4180242500000002
  2.0872015300000002  5.9787466299999998  9.2428506299999995
  6.2030839899999997  6.0352046799999997  9.3886192400000006
 -4.0781515300000004  9.5362341500000003  9.2713873099999997
  0.0542577300000000  9.7219549799999996  9.2563792700000000
  4.1244516300000003  9.5406900300000004  9.2662770900000009
  2.0359889400000002  1.1897484599999999  5.8876308999999996
  6.2572139499999997  1.3395626500000000  5.9539778200000004
 10.2071788300000001  1.1617238100000000  6.0406909899999999
 -0.0195219200000000  4.7903083700000000  5.9002126600000002
  4.0258248200000004  4.7048345600000001  5.8236836299999997
  8.3550992100000006  4.6096304100000003  5.9078621199999999
 -1.9449509400000000  8.3664091000000003  5.9501660000000003
  2.0012788000000001  8.2699424199999996  5.6718421899999996
  6.1680059399999996  8.2670865399999993  5.9699194200000001
  2.1473040700000001  1.1852048700000000 12.5623887900000000
  6.1581863900000000  1.2186197100000000 12.7557047699999995
 10.2281165200000004  1.2782563899999999 12.7089310700000002
  0.0048831800000000  4.7194505600000003 12.6232512400000001
  4.1686532600000001  4.8071059800000002 12.5740415700000003
  8.2483613400000007  4.7563000000000004 12.5664990200000002
 -1.9676238900000000  8.3085521599999996 12.6736649000000003
  2.0983933800000001  8.1164113699999998 12.5553623800000000
  6.2112220799999998  8.5884383399999997 12.6031906700000000
