Cd S 
 1.0000000000000000
    12.3977854500000007    0.0000000000000000    0.0000000000000000
    -6.1988927199999999   10.7367971499999992    0.0000000000000000
     0.0000000000000000    0.0000000000000000   13.4479464199999992
 Cd  S  
  36  36
Cartesian
  0.0095229900000000  2.4406614599999998 13.4053597300000007
  4.2305167199999998  2.4711463400000002 13.2464111899999999
  8.3065366500000000  2.3344626200000000  0.1526122700000000
 -2.0616819799999999  5.9434477899999996  0.1181367100000000
  1.9457988300000000  6.1750107700000001  0.0182020600000000
  6.1910725800000002  5.7598737900000003 13.3809272299999993
 -4.1313133000000004  9.5444060400000001 13.4464596200000006
  0.0760906100000000  9.3554924100000001  0.0185580300000000
  4.0421480599999997  9.5113130800000008 13.3810159899999999
 -0.1196997500000000  2.3292691200000002  6.7257096100000000
  4.1095227699999999  2.3969262900000001  6.7330535300000003
  8.2535667999999998  2.3845219700000002  6.7266687200000002
 -2.0488705399999998  6.0165487400000002  6.6036922200000001
  2.1087775199999998  5.7275279000000001  6.7452709899999999
  6.2472282799999999  5.8848401299999997  6.5237097500000001
 -3.9734956299999999  9.6337088099999999  6.8057785500000003
 -0.1570711300000000  9.5793143700000005  6.6286606199999998
  4.2273076200000004  9.5214185499999999  6.7502382599999997
  2.0437612299999999  1.2216320300000001  3.3359586399999999
  6.2019754999999996  1.3434770700000001  3.2490378400000002
 10.3484509800000009  1.2491325099999999  3.3373595200000001
  0.0227790700000000  4.7199522900000002  3.3289772800000001
  4.1317159200000004  4.7714100000000004  3.3633353000000001
  8.3778705299999991  4.7291398700000000  3.4703872699999998
 -2.1035682100000002  8.3511815299999999  3.3743692099999998
  2.1057347300000000  8.3674645299999995  3.4114353799999999
  6.1904299399999996  8.3820778499999999  3.3108010299999999
  2.1605048600000001  1.1724005900000001 10.0290928899999994
  6.1773119000000003  1.1775513600000000 10.1446142399999992
 10.2660668299999998  1.2687125600000000 10.1091361400000004
 -0.0126387300000000  4.8195585200000002 10.1080316600000000
  4.1921511000000002  4.9777052099999999 10.0137220199999994
  8.3385964500000007  4.8049841799999999 10.1916197900000007
 -2.0278555500000000  8.3812585199999994 10.0594867299999997
  1.9849644300000000  8.4912872900000007  9.9168266099999993
  6.1968733199999999  8.3607914999999995 10.0678235100000002
  0.1479544900000000  2.2528769099999999  2.5532603200000001
  3.9514808200000000  2.3359102599999999  2.5185533300000000
  8.1934098300000002  2.4142780300000002  2.5267916700000002
 -1.9372405699999999  5.9173026200000001  2.4962080800000002
  2.0159778600000000  6.0232429200000004  2.4800213300000000
  6.2140019700000000  5.9568028699999997  2.5452089000000000
 -4.1614817600000000  9.4993957699999996  2.5190931299999999
  0.0765976800000000  9.5268224900000007  2.6093006100000000
  4.2429150099999999  9.4501074299999992  2.5828111100000002
  0.0561988500000000  2.5229425800000000  9.2919359000000004
  4.1234327100000003  2.5139477200000000  9.4483607999999997
  8.3158068400000005  2.5983660000000000  9.2460708799999995
 -1.9161071199999999  5.8506087500000001  9.1675180600000008
  2.0983320700000001  5.9445998500000004  9.2385389500000006
  6.1915611699999999  5.9558117499999996  9.2561585799999992
 -4.0835600699999999  9.7022703499999992  9.2059953199999995
  0.0212268700000000  9.6050972899999998  9.3187486899999996
  4.0821249699999997  9.3078567900000007  9.2593153600000004
  2.0467427800000002  0.9722731400000000  5.9395606799999996
  6.1789686799999997  1.1801843400000001  5.9119841900000001
 10.3906710199999992  1.2618751500000001  5.8199565299999998
 -0.1266589400000000  4.7952207800000002  5.9262033699999996
  4.2112273800000004  4.7912666300000000  5.9485175500000000
  8.2814218999999998  4.6755683000000001  6.0839145700000001
 -2.1235846800000000  8.2778880800000003  6.0519969400000004
  2.0414023100000001  8.3833593900000007  5.8769981500000004
  6.1562815999999998  8.3708641200000002  5.9007076800000000
  2.0532633300000001  1.1835884400000001 12.5963847999999992
  5.9634602699999997  1.1683692500000000 12.6622693799999997
 10.2214507300000008  1.1351269399999999 12.6131554599999998
 -0.0272849200000000  4.7567320500000001 12.7964049800000002
  4.1774746000000000  4.8374886500000001 12.8362821799999995
  8.2649696000000006  4.7722043100000002 12.6177441699999999
 -2.2748781999999999  8.3247587099999993 12.6679005700000005
  2.0585715100000002  8.3401611800000008 12.6054339199999994
  6.1011343900000004  8.3785969799999993 12.6777143500000005
