Cd S 
 1.0000000000000000
    12.3977854500000007    0.0000000000000000    0.0000000000000000
    -6.1988927199999999   10.7367971499999992    0.0000000000000000
     0.0000000000000000    0.0000000000000000   13.4479464199999992
 Cd  S  
  36  36
Cartesian
 -0.0603102700000000  2.4659803299999998  0.0608116100000000
  4.1151544600000003  2.3843127100000001  0.1839071200000000
  8.2326539000000007  2.4679384000000000  0.0874842700000000
 -2.0755501399999998  6.0317545199999998  0.1699550100000000
  2.0732104400000000  5.9900931699999997 13.4212232000000000
  6.2084503000000000  5.9125145500000000  0.0111479400000000
 -4.1838204000000001  9.6258218800000002  0.0205351500000000
  0.0441999100000000  9.4398791299999996 13.4134896900000005
  4.0887018099999999  9.5787722700000000 13.4407493500000008
 -0.0685214400000000  2.2479750300000001  6.7405858600000004
  4.0847615399999997  2.3975309899999999  6.7353248900000002
  8.1826132800000000  2.4712976200000001  6.5554374900000001
 -2.0714586300000000  6.0293640699999997  6.8798336999999998
  1.9455537300000001  5.8971450299999999  6.8151911700000003
  6.1400093199999999  5.9900383000000001  6.7783038500000004
 -4.3039150199999998  9.5055729699999993  6.6178635300000002
 -0.0320790200000000  9.4661341399999994  6.7259456200000001
  3.9768220200000002  9.5807198200000006  6.5705090100000003
  1.9741939100000001  1.2018799700000000  3.4394650699999998
  6.1922931400000003  1.2324820999999999  3.4261455500000002
 10.2313398899999992  1.2792902399999999  3.3117609500000000
 -0.1492916500000000  4.7881805499999999  3.3593863100000001
  4.0823592800000004  4.9076325799999996  3.2417084400000000
  8.2931211299999994  4.7272480500000000  3.3424047799999999
 -2.0253457400000001  8.4938080700000000  3.5336559599999999
  2.1812484599999999  8.5016638699999998  3.3091919800000000
  6.2567562299999997  8.2871847499999998  3.3407781200000000
  2.2283848399999999  1.3541097200000001 10.1310803600000003
  6.1204055100000003  1.0628173999999999 10.2257676199999992
 10.4070635599999992  1.2390808300000000 10.0770927799999992
  0.1312898200000000  4.6836161699999996 10.1784379800000000
  3.9263549100000001  4.8432078199999999  9.9785951799999992
  8.3266901200000003  4.7219919600000004  9.9171644200000006
 -2.1058856600000002  8.3960659599999996 10.2002473200000008
  2.0736751700000000  8.3026675300000008 10.0356397499999996
  6.1628311699999996  8.3227753999999994 10.1479867200000005
  0.0582341400000000  2.3152468599999998  2.4920152799999999
  3.9944576800000000  2.5731203599999999  2.5405156999999998
  8.3169780000000006  2.3849031200000002  2.5727860699999998
 -2.0745591299999999  6.0931145600000001  2.5005493500000000
  2.1523199599999998  5.9930880899999996  2.6169758900000000
  6.3908097000000001  5.9849451900000004  2.5906153600000001
 -4.0941444899999997  9.5881196200000005  2.6011835600000000
  0.0260749000000000  9.4104189700000003  2.3990328200000000
  4.1589017300000002  9.5180031799999991  2.4953472799999998
 -0.0216675500000000  2.5437300899999999  9.4009339300000008
  4.1638788099999999  2.6106556599999999  9.3153104500000001
  8.2460917400000007  2.3894902000000000  9.2719148699999998
 -2.0527785100000000  6.0488983899999997  9.3079194600000008
  2.1519401600000001  5.9415880699999999  9.4548817100000004
  6.1847594399999997  5.9789037100000000  9.2628056399999998
 -4.2149812999999998  9.5157648800000008  9.2423437800000006
  0.0458253200000000  9.6299366499999994  9.3833280099999996
  4.3452318900000000  9.5310743700000007  9.1937017500000007
  2.1792983499999998  1.1192200500000000  5.8490582900000003
  6.1961082400000000  1.1935385500000000  5.8997403700000000
 10.3238010199999994  1.2125839100000000  5.8867436000000000
  0.0087795600000000  4.7722008699999998  5.9116158499999996
  4.0835215099999997  4.8122901400000000  5.8805770500000003
  8.2016342099999999  4.7121625299999996  6.0246287599999997
 -2.1038796400000002  8.3141864000000005  5.8490443000000001
  2.0524336700000001  8.3007331900000008  5.9398906900000004
  6.3095387499999998  8.3457021200000003  5.7092632500000002
  2.1634355099999998  1.0852700900000001 12.4210418699999998
  6.2777307999999996  1.1211693199999999 12.7836684300000005
 10.3397810799999998  1.2041472600000001 12.5807079900000005
  0.0831314300000000  4.8109501899999998 12.4537256200000002
  4.1285442000000003  4.8171605700000004 12.6631389300000006
  8.3478860499999996  4.7552690499999999 12.5968554800000003
 -2.0005508500000002  8.3982545500000008 12.5600238399999995
  2.0364802000000002  8.3535105600000001 12.6323185200000001
  6.1813791800000004  8.3445901100000004 12.6462230200000008
