Cd S 
 1.0000000000000000
    12.3977854500000007    0.0000000000000000    0.0000000000000000
    -6.1988927199999999   10.7367971499999992    0.0000000000000000
     0.0000000000000000    0.0000000000000000   13.4479464199999992
 Cd  S  
  36  36
Cartesian
  0.0458003300000000  2.4274379100000001 13.2891008900000003
  4.1624528200000004  2.4119100300000000 13.4467334199999993
  8.2772124100000006  2.3951429100000001  0.0031903900000000
 -2.0567014200000000  6.0926080999999996  0.1062745500000000
  2.0315690000000002  5.9789808000000004  0.1554807200000000
  6.0846545699999997  5.8648609900000004  0.0436344200000000
 -4.1382811000000004  9.5194088400000005  0.0087629500000000
  0.0271501600000000  9.5106671600000006  0.0295654400000000
  4.2861348100000001  9.5410745200000004 13.3639392499999996
 -0.0571285600000000  2.2847276200000000  6.7578585400000000
  4.2150504900000003  2.2104195400000002  6.6057876799999997
  8.3323914200000004  2.3374930799999998  6.7251332300000000
 -2.2334055700000000  6.0962564700000001  6.7684980200000000
  2.0478018599999999  5.9580563900000003  6.8634542300000003
  6.2419187500000000  6.0668615900000002  6.6478607900000002
 -4.1178638100000002  9.6409259800000005  6.7092397699999999
  0.1238863000000000  9.5677148699999996  6.6783310100000000
  4.1354191399999998  9.5712869999999999  6.7658683999999996
  2.0437555299999999  1.3739785900000001  3.4418423900000001
  6.2246428600000003  1.1629043200000000  3.4219719799999999
 10.2164903799999998  1.1625489400000000  3.4390869099999999
 -0.0403546000000000  4.8987967299999999  3.3269317100000002
  4.1245637600000000  4.6848550900000001  3.3160395399999998
  8.3017192400000006  4.7460879100000000  3.1992419800000000
 -2.1499286700000000  8.2958839199999996  3.4747585299999999
  2.0807711000000002  8.3227138800000002  3.3726833699999998
  6.1042627300000003  8.3214544600000000  3.3791800699999999
  2.0389551099999998  1.1717664800000001 10.0991882900000007
  6.1914714699999998  1.2257279000000001 10.0283059100000003
 10.3315624100000001  1.1842052700000001 10.0830970200000003
 -0.0077584100000000  4.9127587500000001  9.9546529899999996
  4.1326825200000004  4.7723987499999998 10.0935031700000000
  8.2712844699999994  4.7798928199999997 10.0878300200000002
 -1.9202200899999999  8.3854003499999994 10.2097438599999997
  2.1097456600000002  8.4362137500000003 10.0083080100000004
  6.2173280499999999  8.4307234900000001 10.0072887900000005
 -0.0183872800000000  2.3693732000000001  2.5300568299999999
  4.1579226699999996  2.3904611299999998  2.6545045300000001
  8.0804009800000003  2.4235714800000001  2.4254159400000002
 -2.1753253500000000  5.9340703799999996  2.4099023900000001
  2.1461926099999999  5.8774235800000003  2.5502299599999998
  6.1662058999999996  5.8860196699999996  2.7542502400000002
 -4.2026722200000002  9.4327489300000007  2.3275444799999998
  0.0319091800000000  9.5537442600000002  2.6259907199999999
  4.0953338199999996  9.6177817399999999  2.5246402699999999
  0.0049176400000000  2.3846174200000001  9.2364202300000002
  4.1321277800000003  2.1721117200000002  9.2684548499999995
  8.2744583699999996  2.3615244999999998  9.2752027600000009
 -2.0209250000000001  5.9495046399999998  9.2959747299999993
  2.2019377599999999  5.8063665999999996  9.3691338399999999
  6.3456473600000001  6.1464694599999996  9.1842974700000006
 -4.1414684499999996  9.5602894099999993  9.1501477500000004
 -0.0613212400000000  9.5412982700000004  9.2666329199999993
  4.1373176799999998  9.5483406399999993  9.2425243800000008
  2.0198943800000002  1.0249646100000001  5.7535798900000001
  6.1178317900000003  1.0535993299999999  5.8269568600000001
 10.3424313600000009  1.3194432800000000  5.7034761999999999
 -0.1461860700000000  4.8817037499999998  5.7280040400000001
  3.9782001000000000  4.8583658200000004  5.8473810600000000
  8.3748557600000009  4.7523210499999999  5.8753101599999997
 -2.0878993299999999  8.3041467400000002  5.8640496600000001
  2.0958025500000002  8.2547733599999997  5.7847892099999996
  6.0522848900000001  8.1992003499999999  5.9469725200000001
  2.1568309600000002  1.1075165199999999 12.6206623800000006
  6.1843390899999999  1.2078714300000000 12.6675731200000001
 10.4803265999999997  1.1683647399999999 12.7107679200000003
 -0.1209625900000000  4.6420821600000002 12.5866464699999998
  4.2070868299999997  4.7255300499999997 12.5024087999999995
  8.2719962900000006  4.7627623699999999 12.6206506800000007
 -2.1106191399999998  8.4523806799999992 12.4896137500000002
  2.1007768499999999  8.3497889700000005 12.7035623799999993
  6.1910621600000004  8.2810378199999999 12.7920568600000006
