Cd S 
 1.0000000000000000
    12.3977854500000007    0.0000000000000000    0.0000000000000000
    -6.1988927199999999   10.7367971499999992    0.0000000000000000
     0.0000000000000000    0.0000000000000000   13.4479464199999992
 Cd  S  
  36  36
Cartesian
  0.0766118700000000  2.4090349299999998 13.4012889000000008
  4.1769013900000003  2.3691132700000002  0.2082565100000000
  8.4398664599999993  2.4520476200000001  0.1622709900000000
 -2.1200643900000000  5.8644513800000002  0.1387690900000000
  2.1915655900000002  6.0218402600000003  0.0284155100000000
  6.0529025399999998  6.1037002899999999  0.0532007500000000
 -4.0504935000000000  9.5905723300000005  0.1264595100000000
  0.0056289700000000  9.7313695399999993  0.0635666900000000
  4.1263959100000003  9.6101975900000003 13.4451405099999999
  0.1519148400000000  2.4638186900000001  6.7711225199999996
  4.0961143800000004  2.3575932200000000  6.8520421699999998
  8.2466577599999997  2.3735768699999999  6.7282574600000000
 -1.9704455000000001  5.8594361099999999  6.7842755500000003
  2.0826021899999998  5.8559236800000001  6.8607802400000004
  6.3603296199999999  5.9318201699999999  6.7710095499999996
 -4.1038632399999999  9.5109175399999994  6.7652138900000001
 -0.0622517600000000  9.3839177599999992  6.8153338500000000
  4.1069393800000000  9.5308978599999996  6.7317450499999998
  2.1026125300000000  1.2836209300000001  3.1990553199999998
  6.2232396200000002  1.2739227000000000  3.4272977700000000
 10.3220874600000005  1.1963452600000000  3.3678099700000002
 -0.0308893900000000  4.6988410600000003  3.5379658900000002
  4.1151348099999998  4.7729684399999996  3.3683111700000001
  8.0848504800000001  4.7666639100000001  3.2446836600000002
 -2.0685571700000001  8.3521874599999997  3.3612042000000000
  2.0662733200000001  8.3275949399999991  3.2906170100000001
  6.2439961799999999  8.3469135500000000  3.3094889200000002
  2.0320668400000002  1.2022397600000001 10.1446439599999998
  6.2523125500000001  1.2400030099999999 10.1789588200000001
 10.4178381000000009  1.1019414300000001 10.1768317600000007
  0.1830560300000000  4.7010915999999998 10.1550982600000008
  4.1782114000000004  4.7780538200000002 10.1813919599999991
  8.1978866700000008  4.8520813499999997 10.1295871000000002
 -2.0468771600000002  8.4346456399999994 10.1256188799999993
  2.1245763900000001  8.2786804499999995 10.0903844599999992
  6.2081530100000002  8.3461738899999993 10.0915775599999993
  0.1909032100000000  2.3291847300000001  2.4985638899999998
  4.1903007900000002  2.3813963800000000  2.6957255800000000
  8.2984980499999992  2.4308176399999999  2.5255248799999999
 -2.0423596599999998  6.0144242500000002  2.5649475300000000
  2.1473312199999999  6.0723119099999998  2.5038734100000002
  6.2099966200000001  6.0325499000000002  2.4448053299999999
 -4.0825698499999996  9.5787900900000000  2.6218226599999999
  0.1218800300000000  9.4158674599999994  2.5175263100000000
  4.1548583700000004  9.5427367899999993  2.5106962300000002
  0.1065567400000000  2.2137663100000000  9.2034396800000007
  4.0774374900000003  2.2604602100000002  9.2557329599999996
  8.4718234300000006  2.3270301700000000  9.3487725699999995
 -1.9701081600000001  6.1215436700000003  9.3315414499999996
  1.9946050700000000  6.1019208799999998  9.2663958300000004
  6.3173079400000001  5.8204613299999997  9.1693476500000006
 -4.0513389000000002  9.3714381699999993  9.2150799499999998
  0.1160851800000000  9.4201982599999994  9.1793761899999993
  3.9743101099999998  9.4561925099999993  9.1040791199999997
  2.0596430400000001  1.2087448700000001  5.8981443699999998
  6.0850104500000004  1.2664579400000000  5.7302155600000004
 10.4225860800000003  1.0749420400000000  5.7798137399999998
  0.0344992000000000  4.7348689200000003  5.8967463200000001
  4.1430721699999999  4.7799356599999996  5.9061729300000003
  8.2207174399999996  4.9076554500000000  5.8699688999999999
 -2.0600621499999998  8.3143034300000007  5.8889869900000003
  2.2591410199999999  8.3122435699999997  5.9728225600000000
  6.1365320499999996  8.4396068999999994  5.8137671099999997
  2.1508348300000000  1.1977826000000000 12.5654118900000000
  6.2360134299999999  1.2302314500000000 12.5900142400000004
 10.2281062299999999  1.0087868400000000 12.4981214600000001
 -0.1165096700000000  4.7146375699999998 12.6822323200000007
  4.1299225799999997  4.8286394899999996 12.5998754799999997
  8.2826812000000007  4.8170587800000000 12.5002233700000005
 -2.0526181399999999  8.4168832200000008 12.4068337100000008
  2.0681034199999999  8.1434226800000005 12.7221048099999994
  5.9971248499999996  8.3261426800000002 12.6509827900000005
