Cd S 
 1.0000000000000000
    12.3977854500000007    0.0000000000000000    0.0000000000000000
    -6.1988927199999999   10.7367971499999992    0.0000000000000000
     0.0000000000000000    0.0000000000000000   13.4479464199999992
 Cd  S  
  36  36
Cartesian
 -0.1656185400000000  2.3328234299999999  0.1017669300000000
  4.1209078999999997  2.3696447400000000 13.3966462699999997
  8.4517757099999997  2.4342506199999998 13.3421073200000002
 -2.1808077799999999  5.7813424500000004  0.0687952600000000
  2.0920016399999999  5.7800079699999998 13.3682209400000005
  6.4372040799999999  6.0073088700000001  0.0569170900000000
 -4.0306676399999999  9.6075584799999998 13.3547842899999996
 -0.0658126500000000  9.6862477200000008 13.4010776400000005
  4.0789185899999998  9.4833908600000001 13.3640995500000006
  0.1051459900000000  2.2477858500000001  6.5952970700000000
  4.1037908999999999  2.4069624100000002  6.5381416899999998
  8.4810129799999991  2.3272813100000000  6.6348379299999998
 -2.0228792699999998  5.9964648100000000  6.5576941900000003
  2.1990051300000002  5.8578051999999996  6.7366402299999999
  6.2440943100000004  5.9343336500000001  6.8140926100000003
 -4.0392467800000000  9.5301994299999997  6.7356051499999996
 -0.1345382800000000  9.5841407800000002  6.6585278399999996
  4.0855780599999996  9.5208725899999997  6.9488644300000004
  2.0547805700000001  1.1952836099999999  3.3634692400000001
  6.1807552000000001  1.2064259300000000  3.3323277000000000
 10.4392483299999999  0.9816807200000000  3.3540517799999998
  0.1492084700000000  4.6019162299999996  3.4245234600000001
  4.1457393700000003  4.8529301000000000  3.2611292900000000
  8.4107322900000003  4.6410628100000002  3.4555321299999999
 -2.2799899300000002  8.4435965799999995  3.3576282599999998
  1.9590629799999999  8.4346352200000005  3.1670708599999999
  6.3502102999999996  8.3526982099999998  3.2703853800000000
  2.1505335600000000  1.3224965099999999 10.2169892099999995
  6.0304156899999999  1.3245115900000000 10.1237545999999998
 10.3562832799999995  1.4150301999999999 10.1561726199999995
 -0.0431759700000000  4.8170106800000001 10.1413408799999996
  4.1220200499999997  4.7309867099999998 10.0997013300000003
  8.3117540699999992  4.7720313399999998  9.9853038200000004
 -1.8926046400000001  8.4586261700000005 10.0910678800000007
  2.2451130500000001  8.4705713899999999 10.0437023300000003
  6.2573652099999997  8.3932969400000008 10.0323549599999993
  0.0053473500000000  2.3445758200000002  2.5201434100000002
  4.1177637000000002  2.2625376699999999  2.5476580400000000
  8.2357746699999996  2.4100966900000000  2.5316485300000000
 -1.8812295500000000  5.8110724300000003  2.5267764800000001
  2.0727928800000002  5.9727027799999997  2.5365637599999999
  6.1786793199999996  5.9606301100000003  2.5478258700000000
 -4.2426238400000003  9.6369336099999998  2.5267155600000000
  0.0140800500000000  9.5397308100000000  2.5099251200000001
  4.2196110800000000  9.4982006600000002  2.7332449500000000
 -0.1341901000000000  2.5204694700000001  9.3566226799999992
  4.3758650799999996  2.3770944599999999  9.3076412200000007
  8.1417693300000007  2.3323474700000002  9.3487189199999996
 -2.1530384699999998  5.9927517000000003  9.3152402500000004
  2.0403885399999999  5.9221468499999999  9.4255509300000000
  6.0762483200000004  5.8785874500000004  9.2133596900000008
 -4.3359656500000003  9.4478923199999993  9.3277671499999997
 -0.0864895500000000  9.3918391600000000  9.2012430900000002
  4.1651163599999999  9.6816345399999992  9.3621082300000005
  2.0412315900000002  1.2022248400000000  5.8802848200000000
  6.1761460699999997  1.2429540200000000  5.9166811499999996
 10.2746852700000009  1.0267740800000000  5.8341804200000000
  0.0068501500000000  4.8044276899999998  5.9318929300000001
  4.1868987700000000  4.6890829199999997  6.1236030899999996
  8.2267353300000003  4.8436662799999999  5.8538421300000003
 -1.9440498700000000  8.3801257899999992  5.7479045800000002
  2.1121701100000001  8.4707904200000002  5.7759050900000002
  6.2056738800000000  8.3499149100000007  5.9066204700000000
  2.0416488400000001  1.1716119700000001 12.5273961600000003
  6.1647230700000000  1.0891140800000001 12.7800147600000003
 10.3510902799999993  1.1624716300000000 12.6072000400000004
 -0.0279830400000000  4.8505879700000003 12.4882183900000001
  4.1232740200000002  4.7623769200000003 12.6100346000000005
  8.2602102800000008  4.7585600899999996 12.6216452900000000
 -2.0615229199999998  8.3233926599999997 12.6357148000000006
  1.9899934699999999  8.3916352100000005 12.6454804299999992
  6.2582738400000002  8.3525254600000007 12.7019353099999996
