Cd S 
 1.0000000000000000
    12.3977854500000007    0.0000000000000000    0.0000000000000000
    -6.1988927199999999   10.7367971499999992    0.0000000000000000
     0.0000000000000000    0.0000000000000000   13.4479464199999992
 Cd  S  
  36  36
Cartesian
  0.0087618300000000  2.5357983900000001  0.1824909200000000
  4.0204385399999998  2.5316253199999998 13.2924074700000006
  8.2897970300000008  2.3909156199999999  0.0108036800000000
 -1.9783022200000000  5.9165861499999997  0.0411690100000000
  2.1473896699999999  5.8028772399999999 13.3385928299999996
  6.2579376800000004  5.8380915800000004  0.0317807200000000
 -4.1484232299999997  9.5335043200000005 13.4376974699999998
  0.0805727200000000  9.4965697400000000 13.4464594799999997
  4.1225003999999998  9.5560091899999993 13.3318443799999997
  0.0557930100000000  2.3814112999999999  6.6994797899999998
  4.0615246799999998  2.3879616100000001  6.8282492599999998
  8.2867457499999997  2.3982878300000001  6.7781712599999997
 -1.9763723799999999  5.9648933700000004  6.9018999000000001
  1.9917037399999999  5.9387267200000000  6.6566720200000002
  6.1619136100000000  5.7944093499999996  6.5971546400000003
 -4.2455371299999998  9.7488519399999998  6.6708356699999998
 -0.0404805600000000  9.3337145400000008  6.7695301499999996
  4.0659847300000003  9.5829684299999993  6.8839077499999997
  2.2263795599999998  1.1968726500000000  3.2100983699999999
  6.1723472700000004  1.1876977399999999  3.4418524800000001
 10.4596504400000008  1.1265165699999999  3.2045147799999998
  0.0993869100000000  4.7413824000000000  3.3732172500000002
  4.0738287399999997  4.9177706900000002  3.4229965800000000
  8.2122540300000004  4.7484477500000004  3.4881177200000000
 -2.1128632600000001  8.5042518600000001  3.4171230499999998
  2.0689473999999999  8.3438695599999999  3.3663579900000000
  6.3886571999999999  8.3556437500000005  3.5186034099999999
  1.8796611100000000  1.3110546199999999 10.1047274999999992
  6.3769580899999996  1.2413306200000001 10.1140333400000006
 10.2689711999999993  1.1238588899999999  9.9966674700000002
  0.0588066000000000  4.7525035700000000 10.0765783899999999
  4.0981957800000002  4.6779513300000000 10.1264580399999993
  8.3690580600000004  4.9416715499999997 10.1806841899999991
 -2.0943671300000002  8.2424307700000004 10.1529109500000008
  1.8945603300000000  8.2693129200000008  9.9717493600000005
  6.2112864200000004  8.2521974999999994 10.0990395599999996
 -0.1064883000000000  2.1810742599999999  2.5472736999999999
  4.1869656600000003  2.3045230600000002  2.6142243000000001
  8.4952440199999995  2.3295457000000002  2.5713678500000001
 -2.2012191200000002  6.1080084299999999  2.5824613300000001
  2.0264530000000001  6.0080076199999999  2.3238883800000001
  6.2215295299999998  5.9615850400000001  2.5354635800000001
 -4.1386778299999998  9.5315461500000005  2.5234567200000000
 -0.0400221500000000  9.5226279500000004  2.6592734400000002
  4.1008467399999997  9.5811960999999997  2.5857146599999998
  0.1000437400000000  2.5238163400000002  9.1805561099999995
  4.1327635300000001  2.4083090199999999  9.1655026199999998
  8.1833884500000007  2.2845985700000000  9.3965656299999996
 -2.0608666400000000  5.9694208599999996  9.2576971599999993
  2.0146199899999999  6.0961134499999998  9.1033740400000003
  6.1583796800000004  6.0361297599999997  9.2328349999999997
 -4.1186234800000001  9.5196453699999992  9.2471218299999993
  0.1469494100000000  9.4202995099999995  9.2512539799999995
  4.1449121900000003  9.5810382700000005  9.3338592100000000
  2.2092951599999999  1.2089036600000000  5.9998111099999996
  6.1906029499999997  1.0632265800000000  5.7770223500000002
 10.2726182500000007  1.2512254300000001  5.9020754699999998
 -0.0451309100000000  4.5947105600000002  6.0225229499999999
  4.1300700499999996  4.8358287400000002  5.8628791500000004
  8.2315944499999993  4.7908881599999997  5.9268526399999999
 -1.9597441600000001  8.3490484499999997  5.8305645400000001
  2.0670333699999999  8.3838090500000000  5.9097317900000004
  6.2052970500000004  8.3473837100000008  5.8990667600000002
  2.0655572800000002  1.1927116099999999 12.6202593400000005
  6.3858953999999999  1.1197310199999999 12.6001358299999993
 10.1886168700000006  1.0903118700000001 12.7819345900000005
  0.0797684100000000  4.7552068800000002 12.6212640399999998
  4.1952800500000000  4.8403044800000004 12.6854510900000008
  8.2598281799999995  4.7767134400000000 12.6070814299999991
 -2.1145155099999999  8.3410450300000001 12.6348772599999997
  2.0690836500000001  8.3387910600000001 12.6323100499999992
  6.3105008800000002  8.4140818799999995 12.6517768900000007
