Cd S 
 1.0000000000000000
    12.3977854500000007    0.0000000000000000    0.0000000000000000
    -6.1988927199999999   10.7367971499999992    0.0000000000000000
     0.0000000000000000    0.0000000000000000   13.4479464199999992
 Cd  S  
  36  36
Cartesian
 -0.0861091900000000  2.3636891400000000 13.4374324099999995
  4.1353813900000000  2.3842541900000001  0.0068744600000000
  8.2454723500000000  2.3055426200000002 13.2645430599999994
 -1.9292454900000000  6.0895964300000003 13.3480424299999996
  2.0318911000000002  5.9680908900000000 13.4386834700000009
  6.1358442899999996  6.0475271900000003  0.0995993900000000
 -4.1813637799999999  9.6623106700000001 13.3693910500000008
 -0.0068848000000000  9.5441115300000003 13.4403500800000000
  4.1243577800000004  9.5122982900000004 13.3908052899999994
 -0.0232640100000000  2.3270207300000001  6.7757074599999996
  4.0714275400000002  2.3381783000000000  6.5684575299999999
  8.3912949799999996  2.3086876500000000  6.7451265600000001
 -2.0105952899999999  5.9774039900000000  6.7374418699999996
  2.1022354499999998  6.0232347600000002  6.6577816099999998
  6.1847349500000002  5.9782624000000002  6.7051011699999998
 -4.1187634500000003  9.5497094800000006  6.7329179799999999
  0.0994038400000000  9.4870384699999999  6.6206215700000000
  3.9518059600000002  9.5467575000000000  6.6969404199999998
  1.9772460000000001  1.1549728399999999  3.4330498600000001
  6.2319837199999997  1.2368761300000000  3.2945220200000001
 10.2232588199999999  1.2314970000000001  3.2174681100000000
 -0.1025604900000000  4.7148861300000000  3.2830401700000000
  4.1056648300000003  4.7714310400000004  3.3777107499999999
  8.2507210099999995  4.7884367299999999  3.3026736300000001
 -2.1804572900000001  8.3914460299999991  3.3377004200000000
  2.1751806800000000  8.3510320799999995  3.1442929999999998
  6.2489558499999998  8.3272163599999995  3.2408598799999999
  2.0929126899999999  1.3344685700000001 10.2775295799999995
  6.0193502900000002  1.2848968900000000 10.1273983199999993
 10.4059890999999993  1.2292621300000000  9.9779818200000001
 -0.1208112700000000  4.7525052900000002 10.1098479399999999
  4.0621358900000004  4.7142744499999996 10.1208412299999999
  8.1361690699999993  4.7254048600000003 10.2478929900000004
 -1.9761782999999999  8.4556227600000007 10.0400684299999998
  2.0381229099999998  8.2909770900000002 10.1097398199999997
  6.1115359500000004  8.3661514199999996 10.0844209700000000
  0.0058458000000000  2.4128958800000002  2.6101279200000000
  4.2496786200000001  2.3907088299999999  2.7312849099999998
  8.3110418799999994  2.2727891599999999  2.5738980800000002
 -2.2184139799999998  5.9196933800000000  2.4806135800000000
  2.0374161100000001  5.9432464800000000  2.5653925200000001
  6.2421484200000004  5.8859666300000004  2.6247947900000002
 -4.1045676200000001  9.6019809299999999  2.6904810200000000
  0.0170314600000000  9.4843731699999996  2.5947883900000002
  4.1086309999999999  9.4791182599999999  2.4508829900000002
 -0.0687940700000000  2.3551587600000001  9.3774804399999994
  4.2308697500000001  2.3955636899999999  9.4702450500000008
  8.2865970999999998  2.3692402800000001  9.2299598300000003
 -2.0857230200000001  5.9670494200000004  9.2390694700000005
  1.9865562400000001  6.0721463499999997  9.2511931999999995
  6.2292884400000004  6.0123018000000004  9.2427352500000008
 -4.1178778800000000  9.5215344000000002  9.2498558000000006
  0.0408451900000000  9.5529163399999995  9.3286774399999999
  4.0077553000000004  9.6160454899999994  9.4041300999999997
  2.2461275600000001  1.1626350500000000  5.8893741600000000
  6.3569946200000000  1.2082031900000001  5.7042256499999997
 10.2004563200000007  1.2398506600000001  5.8140850200000003
 -0.1711692800000000  4.6395637399999998  5.9759479999999998
  4.0667273499999999  4.8183768300000001  5.9315803999999996
  8.3613503599999994  4.8279879799999996  5.7296313799999998
 -2.0387475600000000  8.3702987199999992  5.9313570300000000
  2.1335605700000002  8.3840174500000000  5.9166281700000001
  6.1515459600000000  8.3020536000000007  5.8315853700000000
  2.1732336600000002  1.1582945899999999 12.4555284499999992
  6.1994055000000001  1.1753827400000001 12.7567854500000006
 10.3165983400000005  1.1821801999999999 12.6078039900000007
 -0.1426106100000000  4.8668988899999999 12.6861994599999992
  4.1088374200000004  4.7777049800000002 12.6211350699999993
  8.3118498400000007  4.7352439600000000 12.4537463299999995
 -1.9573974500000000  8.3172154599999999 12.5507756799999992
  2.0547420800000000  8.5294262199999995 12.6878991499999998
  6.3212830499999999  8.4191549099999996 12.6705131099999999
