Cd S 
 1.0000000000000000
    12.3977854500000007    0.0000000000000000    0.0000000000000000
    -6.1988927199999999   10.7367971499999992    0.0000000000000000
     0.0000000000000000    0.0000000000000000   13.4479464199999992
 Cd  S  
  36  36
Cartesian
 -0.0383935200000000  2.4852087500000000  0.0413722000000000
  4.1567444499999997  2.3248860400000000 13.3895146900000004
  8.2463910200000008  2.3006288200000000 13.2894103300000008
 -2.0675907599999999  5.9671883599999997  0.0101568300000000
  2.0244676099999999  5.9844366999999998  0.1020801300000000
  6.1864633900000001  5.9069613700000003  0.0919157700000000
 -4.1144122000000003  9.3315096299999993  0.0685139300000000
 -0.0847817600000000  9.5328315600000000 13.4098912899999991
  4.1638374699999998  9.5403914400000005 13.4238503900000001
 -0.0300955000000000  2.4196673700000000  6.7169352299999998
  4.0697109400000002  2.3576928599999998  6.7694840200000002
  8.1831729800000002  2.2825413999999999  6.8313151200000002
 -1.9166117700000000  6.0448188399999996  6.6389990000000001
  2.0836478899999999  5.8458028500000001  6.7956628700000001
  6.1137103300000000  6.0127046499999999  6.6798012800000004
 -4.0571526000000002  9.4646949800000009  6.7898833400000003
 -0.1454607300000000  9.5388946200000007  6.6576932600000003
  4.1068283000000001  9.4881293299999996  6.6598997999999998
  2.0827613800000000  1.1902695200000000  3.3772146599999999
  6.2170207700000004  1.0909236600000001  3.3820392400000001
 10.3685859100000002  1.2813022100000000  3.2420209700000000
  0.1693238100000000  4.7572408599999996  3.4792013300000000
  4.1829854099999997  4.9035762099999998  3.2129127600000000
  8.2913625599999996  4.7784817899999998  3.3220760600000001
 -1.9170459399999999  8.2984710499999998  3.4155483000000002
  1.9369289599999999  8.3542095300000003  3.4226617199999998
  6.2531489699999998  8.2653950599999995  3.2394711100000002
  2.1186992099999999  1.1322968300000000 10.0381208999999991
  6.2364216900000002  1.2252019100000000  9.9893698099999995
 10.3270783799999997  1.1436656999999999 10.3100370300000002
 -0.0090493300000000  4.7747201500000003 10.0895794599999995
  4.1352286500000002  4.7716471699999996 10.0830971500000004
  8.2656728699999995  4.7779479599999997 10.0867178800000001
 -2.0826900300000002  8.4004940300000008 10.2286575899999992
  2.0826634999999998  8.3053658000000006 10.0674627000000001
  6.2293149699999999  8.4251779300000003 10.0524205000000002
  0.0128876900000000  2.3433939100000001  2.5970021900000000
  4.1326730899999999  2.3782879700000001  2.5279397200000000
  8.2850173100000006  2.5898740600000001  2.5764936700000001
 -2.0573402800000000  5.9795749699999998  2.5381469800000001
  2.0665486700000000  5.9571540699999996  2.5395221700000001
  6.2017369000000002  5.8843433400000000  2.6856362599999999
 -4.0618833399999996  9.4195340800000000  2.3668892700000002
 -0.0181757700000000  9.5460498400000002  2.5456894000000001
  4.1001549400000004  9.5830428300000001  2.7024985099999999
 -0.0020401200000000  2.3910010900000001  9.2571125799999994
  4.1617984000000003  2.4127652199999998  9.2924182799999997
  8.0588618699999994  2.3722187799999999  9.1890530600000009
 -2.0441779800000002  5.9673866599999998  9.3631932100000004
  2.1820864900000001  6.1229585599999998  9.2529313500000008
  6.1918417400000001  5.9641263300000000  9.2606514099999995
 -4.1217459300000003  9.5582455500000005  9.1808842399999993
 -0.0334853600000000  9.4488050599999998  9.4246089099999999
  4.1348210700000001  9.5373892199999997  9.2639246400000008
  2.0590324500000001  1.1814869299999999  5.8913908099999999
  6.1057506400000001  1.2426434000000000  6.0013139200000003
 10.3509541600000006  1.1296896100000000  6.1306861200000000
  0.0079181000000000  4.7733468099999996  5.8994525800000002
  4.0665657499999996  4.8568638499999999  5.9066125400000002
  8.4037403099999999  4.6086035399999998  5.9784314299999997
 -2.1309486500000001  8.3815145999999991  5.8060326599999996
  2.2041670099999999  8.2948098100000003  5.7027479899999998
  6.2052978599999999  8.1544180199999996  5.8831882300000000
  1.9375524399999999  1.1254081000000000 12.6911328399999999
  6.2185313799999999  1.2253738000000001 12.5635446399999999
 10.3394493799999996  1.1537782599999999 12.6386198200000006
  0.0109303200000000  4.6923757899999998 12.6963924699999993
  4.0611059500000000  4.9987870200000000 12.6173406000000004
  8.4439039900000008  4.6452294399999996 12.6812601699999998
 -2.0664818399999998  8.3464768800000009 12.6151699700000002
  2.1130962200000001  8.2588709500000004 12.5111989200000000
  6.2047518000000004  8.3288996700000002 12.6277580500000006
