Cd S 
 1.0000000000000000
    12.3977854500000007    0.0000000000000000    0.0000000000000000
    -6.1988927199999999   10.7367971499999992    0.0000000000000000
     0.0000000000000000    0.0000000000000000   13.4479464199999992
 Cd  S  
  36  36
Cartesian
 -0.0087148400000000  2.3671580900000002  0.0043011900000000
  4.0149918199999997  2.4461990700000000  0.0819855400000000
  8.4020984700000003  2.2637791699999998 13.2903394499999994
 -2.1030991999999999  5.9809422999999997  0.0534451000000000
  2.0046795099999999  5.7355199499999996  0.0208397400000000
  6.2065791700000004  5.9586553899999997  0.0054893200000000
 -4.1298362900000001  9.5486070200000004  0.0015723300000000
  0.1653524900000000  9.4826552799999995 13.3662590199999993
  4.1520129600000004  9.4831692499999996 13.4170824399999997
  0.0003922700000000  2.3722925400000001  6.7252514400000001
  4.1308504900000003  2.3584637599999998  6.7312468000000001
  8.2400856900000008  2.3923134400000001  6.6872925900000002
 -2.0734904400000000  5.8005121400000004  6.7403694800000000
  2.0806964099999998  5.9787442600000000  6.7230755599999998
  6.3074275899999996  5.9822767800000003  6.8347720499999998
 -4.1515298100000004  9.5373471300000006  6.7115936999999999
  0.0619196900000000  9.5645606200000000  6.7317898300000003
  4.2136169299999997  9.7661487099999995  6.7204670599999998
  2.1796085399999998  1.1141108399999999  3.4635530299999999
  6.2444398300000001  1.2123662799999999  3.3420494900000000
 10.3181820999999996  1.2401837099999999  3.3396648999999998
 -0.0171963500000000  4.7080428200000002  3.4107175299999999
  4.0424865199999998  4.6565596600000001  3.3727990200000000
  8.3511039599999997  4.8317941800000002  3.2852614999999998
 -1.9259218300000001  8.2795838499999999  3.3950010399999999
  1.9653381800000000  8.3435009699999991  3.3295897000000001
  6.1949071499999997  8.3711482200000003  3.3812604700000000
  1.9640965300000000  1.3858588599999999 10.1653825799999993
  6.1268207400000003  1.1132511500000000 10.0924814000000005
 10.3854083399999997  1.1160272499999999 10.1485387599999992
  0.0270232100000000  4.7752470100000002 10.1111913900000001
  4.1151069199999997  4.8254436800000002 10.0452976599999992
  8.2520185000000001  4.7119953499999996 10.0039071699999997
 -2.0565952900000002  8.2903042199999994 10.0844553900000005
  2.0573169099999999  8.3159835199999996 10.0814652400000000
  6.3790234999999997  8.2552602799999999 10.1579234100000004
  0.0024794300000000  2.4148699499999999  2.5622089899999998
  4.1322244200000000  2.3856106800000001  2.5329829699999999
  8.2419593100000004  2.4025547399999998  2.5834782600000001
 -2.0515786500000002  5.9493264100000003  2.7082261200000000
  2.0631289300000000  5.9829824000000000  2.5671240800000001
  6.1720944800000002  5.9478954100000001  2.5267782200000002
 -4.0940898099999998  9.4829011500000000  2.5093569499999999
  0.0189226800000000  9.5624196999999995  2.5239236300000001
  4.2531801900000001  9.5779812900000003  2.4928729900000000
  0.1264553100000000  2.5155707999999999  9.2295238499999996
  4.2548665999999997  2.3114160799999999  9.3550264100000007
  8.2815006800000006  2.4059608799999999  9.2510123199999992
 -2.1031207099999998  5.7320945900000000  9.3289979100000000
  2.0560530799999999  5.8381276499999997  9.2928219900000002
  6.1463731099999999  5.9333617500000004  9.3422889199999997
 -4.1593444399999999  9.6349674899999993  9.3332954699999995
 -0.0405656700000000  9.3799868100000001  9.1275416200000006
  4.2012618000000002  9.5574769100000001  9.1790679599999994
  2.1129979699999999  1.2191525800000000  5.8165117000000004
  6.2177739299999999  1.1697235900000000  5.9067619499999999
 10.3386838200000000  1.2047621600000000  5.8916963500000001
  0.0716522600000000  4.7932337199999999  5.8424136600000001
  4.2005303899999999  4.6098150799999997  5.7939055699999997
  8.4398108000000001  4.7525416900000002  5.7702979699999997
 -2.1395800500000002  8.2242657200000000  5.9213942499999996
  1.9304462200000001  8.3835683299999992  5.9443197799999998
  6.2129054500000001  8.3466585500000008  5.8850406900000003
  2.2048469000000002  1.0436195800000001 12.6285602200000007
  6.1473276700000001  0.9951302700000000 12.5118718500000004
 10.3866817800000000  0.9713554599999999 12.6877446299999992
 -0.0026356400000000  4.7967416500000004 12.5837197900000000
  4.1037725500000004  4.7535967899999996 12.7056351099999993
  8.3256312200000000  4.7225019599999998 12.5647791699999996
 -1.9839767500000001  8.4895853999999993 12.6672277700000002
  2.1829149100000000  8.2386809400000001 12.4929530100000008
  6.2086280299999999  8.2932566199999993 12.6654136499999996
