Cd S 
 1.0000000000000000
    12.3977854500000007    0.0000000000000000    0.0000000000000000
    -6.1988927199999999   10.7367971499999992    0.0000000000000000
     0.0000000000000000    0.0000000000000000   13.4479464199999992
 Cd  S  
  36  36
Cartesian
  0.0080946400000000  2.3498101100000000 13.4328603799999993
  4.2164458600000003  2.3527439399999999  0.0131319200000000
  8.2339689400000005  2.3938166999999999 13.3873887000000007
 -1.9910076600000000  5.7944311400000004 13.3444358300000001
  1.9933475000000000  6.0419871100000000 13.3875606999999999
  6.0974510100000003  6.0949794300000004  0.0897446000000000
 -3.9869924100000000  9.5785342399999998 13.3402398000000009
  0.2043253000000000  9.6565359900000001 13.3672573999999997
  4.1215068400000003  9.5639827600000000  0.0133503100000000
 -0.0001018500000000  2.3839770699999998  6.7234421500000003
  4.1409907700000002  2.4366121800000000  6.7602981299999998
  8.2629052400000003  2.3654159400000001  6.7134827399999999
 -2.0611723099999999  5.9841114800000001  6.7083731899999997
  2.1561377400000001  6.1283687300000000  6.6836979599999999
  6.1862923600000004  5.9589069600000002  6.6736087700000004
 -4.0495591400000004  9.4258704000000009  6.8605571400000001
 -0.0221774600000000  9.6686514999999993  6.6120764799999998
  4.1421797199999997  9.5565579399999994  6.7144160199999998
  2.0707141400000002  1.1784011700000001  3.3973330499999999
  6.2341637399999996  1.0674224200000000  3.2264377600000000
 10.2980853499999991  1.2303508400000001  3.3246610200000002
 -0.0014233900000000  4.7944446200000002  3.3768880100000001
  4.0927456500000003  4.7737627500000004  3.3692397500000002
  8.1336306900000004  4.8267249000000003  3.3035458599999998
 -2.2197593200000001  8.3948701000000003  3.3597664800000002
  2.1785893800000000  8.3209375899999998  3.4975135300000000
  6.1939531399999996  8.3495316099999997  3.3675006700000001
  2.0993775700000001  1.3255655099999999 10.1110605400000004
  6.2027557499999997  1.1933222100000000 10.0883761399999994
 10.5117289500000002  1.3288985400000000 10.1894445900000008
  0.0574475600000000  4.6946925799999999  9.9506516900000008
  4.0498043099999999  4.7611996300000001 10.2557989099999993
  8.2670950199999993  4.7044165700000002 10.0024141800000006
 -1.9554479600000001  8.2108729599999997 10.0406851499999998
  1.9367618400000000  8.2789842999999994 10.1720222299999996
  6.0896834899999996  8.4506835099999993  9.9335071700000004
  0.0411167600000000  2.4910430200000002  2.5083679900000000
  4.1783909799999996  2.4728921399999999  2.6403088800000001
  8.3198271300000002  2.4014047199999999  2.5561004000000001
 -2.1800566600000000  6.0282453000000000  2.5935666400000001
  2.0371207899999999  5.8198072400000003  2.4631621799999999
  6.2123856699999997  5.8412822300000000  2.4897012900000002
 -4.0286714100000003  9.5062036499999998  2.4843994399999998
 -0.0260818400000000  9.5973255599999998  2.5064168200000001
  4.1199114999999997  9.4389169000000006  2.6856928799999999
 -0.1035667600000000  2.3552160899999999  9.2631523199999997
  4.1249036500000003  2.3420626599999999  9.2789394099999996
  8.2909173000000003  2.2379424600000002  9.3069361500000003
 -2.0359810000000000  5.9611755400000002  9.1613956099999996
  2.2115164100000002  5.8905860299999997  9.2050975400000006
  6.2034683199999998  6.0158616900000004  9.3462145099999994
 -4.1325463200000003  9.5448042700000002  9.2570636299999993
  0.1050333600000000  9.5689659200000001  9.3176373500000000
  4.1055063199999999  9.4534322999999993  9.4010763399999995
  2.0890456899999998  1.2550293699999999  5.8996696300000000
  6.2504701200000001  1.2753418900000000  5.8273253299999999
 10.4375929799999998  1.1608735699999999  5.8603536199999997
 -0.0883372600000000  4.5769309600000003  5.9118675900000000
  4.1036208700000003  4.8684061200000004  5.7605967600000003
  8.2715217699999997  4.7893605299999997  5.8791628600000001
 -2.0303154600000002  8.4558207500000009  5.7047335800000001
  2.2319499500000002  8.2177028500000002  5.8621680200000004
  6.1783607600000003  8.3448676499999994  5.8861681700000004
  2.0711902800000002  1.2046840999999999 12.6202796500000005
  6.2565108100000000  1.1566156800000000 12.6378496600000005
 10.4377490099999992  1.1576829099999999 12.6324910599999995
 -0.0671079700000000  4.7362773699999998 12.7619424699999993
  4.1172572499999998  4.7625770500000000 12.6096326399999992
  8.3396178400000007  4.8222039600000004 12.5241365099999999
 -1.9767937799999999  8.3029681600000007 12.7498038099999995
  2.1451108400000001  8.3558694300000003 12.7300880500000009
  6.1848027700000001  8.3267106599999998 12.6294164500000008
