Cd S 
 1.0000000000000000
    12.3977854500000007    0.0000000000000000    0.0000000000000000
    -6.1988927199999999   10.7367971499999992    0.0000000000000000
     0.0000000000000000    0.0000000000000000   13.4479464199999992
 Cd  S  
  36  36
Cartesian
 -0.0003007700000000  2.3825620700000001 13.4450307700000007
  4.0756616899999996  2.3158553199999998  0.0045148800000000
  8.2249527699999998  2.3096123000000000  0.0123570500000000
 -2.1953303599999998  6.0068311899999998 13.4366627899999997
  2.0278871700000001  5.9493705300000004  0.0248341900000000
  6.2492653599999999  5.9581202700000002  0.0618639200000000
 -4.0760025600000001  9.6349236800000000  0.0503894600000000
  0.0532157000000000  9.5299591400000008 13.4423333800000009
  4.2548199799999997  9.5373748299999992  0.0730773500000000
 -0.1047031400000000  2.3457387199999999  6.9072213800000002
  4.1103960700000002  2.3297062099999999  6.8939245900000001
  8.0668755500000007  2.4975481199999998  6.7714100300000002
 -1.9774353700000000  5.8435475900000000  6.7771798800000003
  2.0640739500000000  6.1473484799999998  6.7147758900000003
  6.2985913199999999  6.0472621000000002  6.7411959899999996
 -4.1155235399999999  9.6045755899999996  6.7279243500000003
 -0.0828271200000000  9.4679153800000009  6.7523790400000001
  4.1616015300000004  9.5742696899999995  6.7934711200000004
  2.0149302400000000  1.0670948400000000  3.3831426499999999
  6.1448745200000001  1.1681022200000000  3.2581029699999999
 10.3801644500000005  1.1344389300000000  3.4750974200000000
  0.0439975100000000  4.8687771800000004  3.3359616000000001
  4.1438084699999997  4.7581698100000001  3.4700611600000002
  8.2759374300000008  4.7320005800000002  3.3760270700000001
 -2.0810895299999999  8.2763557199999997  3.2817778099999999
  2.0290026000000001  8.4065793299999996  3.3546979499999998
  6.3224256299999997  8.2955116699999998  3.5189392000000002
  2.0570618899999999  1.1937126000000000 10.1280775700000003
  6.3788188100000003  1.2043055199999999 10.0016251900000004
 10.3500921399999992  1.1812275299999999 10.0831957200000009
  0.1094570700000000  4.8310203700000001 10.1080487399999992
  4.2237317299999999  4.7484372300000004 10.1647308899999995
  8.2761349200000005  4.7342389899999997 10.0591014399999992
 -2.0080129000000002  8.3213094000000005 10.0924282800000000
  2.0323084699999998  8.3178422800000007 10.0389834499999999
  6.1357569400000003  8.3389161400000003 10.0888402300000006
 -0.0657958500000000  2.3068890199999998  2.5451814700000002
  4.0897936200000000  2.3314280699999999  2.5068448700000001
  8.3978743599999994  2.2626023100000001  2.5711019799999999
 -2.0869316800000002  5.9392338200000001  2.5383027100000000
  2.0646616099999999  6.0164974200000003  2.5100223499999998
  6.1543565999999998  5.9628146099999997  2.5393220699999999
 -4.1171835999999997  9.7168917199999996  2.4337925299999998
  0.0189231800000000  9.5314678700000002  2.5180634199999998
  4.0666620199999999  9.5172504199999999  2.5976666499999999
 -0.1049724200000000  2.4379564299999998  9.3982355999999996
  4.1078125600000002  2.4531056200000001  9.3325246300000000
  8.2503172800000009  2.2901479899999999  9.2805355400000007
 -2.0255364199999999  5.9938277500000003  9.3113964300000003
  2.1889803400000001  5.9179500500000000  9.4512114999999994
  6.1887370800000001  5.9737853699999999  9.2914398100000000
 -4.0555843400000002  9.4675628900000000  9.2242284500000000
  0.0526353600000000  9.5483343099999995  9.2899773499999991
  4.2107818699999999  9.5090572800000004  9.2452728799999999
  1.9458172400000000  1.2352479999999999  5.8875122900000001
  6.1707304100000000  1.1825592100000000  5.7611071000000003
 10.3093561099999995  1.2113483199999999  5.8990601700000003
 -0.0038528600000000  4.6179819200000001  5.8053227400000003
  4.1221984500000000  4.7359715900000001  5.8321688800000002
  8.4276552599999999  4.9190616800000004  5.9919221399999998
 -2.0129842199999999  8.3767704399999996  6.0157372499999999
  2.1177488000000002  8.1156589399999994  5.8443103599999997
  6.1955691899999996  8.1950213699999992  5.7143683599999999
  2.0505505099999999  1.1728524000000000 12.6819774800000005
  6.3039020299999997  1.1325282100000000 12.6091979999999992
 10.3300121300000001  1.2508108800000000 12.6602203200000005
  0.0258048100000000  4.7734555700000003 12.6121303299999994
  4.3017640699999999  4.6710471399999998 12.6390715399999998
  8.2665456099999997  4.7289762399999997 12.6052379899999991
 -2.0926060199999998  8.2394036400000008 12.6427336799999992
  2.0329920900000000  8.5530167899999991 12.6295341200000006
  6.1523634700000001  8.2383579800000000 12.6901621700000007
