Cd S 
 1.0000000000000000
    12.3977854500000007    0.0000000000000000    0.0000000000000000
    -6.1988927199999999   10.7367971499999992    0.0000000000000000
     0.0000000000000000    0.0000000000000000   13.4479464199999992
 Cd  S  
  36  36
Cartesian
  0.0100865900000000  2.3673746599999999  0.0335331300000000
  4.0951568399999996  2.4959846300000001  0.0286594600000000
  8.1512724199999997  2.1890585699999998 13.4119321500000002
 -1.9982886300000000  6.0518593799999998  0.0209002600000000
  2.0468488400000000  5.9438906899999999 13.4322130000000008
  6.1729775699999996  5.7715535999999998  0.0415930200000000
 -4.2585900199999998  9.5828131699999997 13.3498181000000002
  0.0945390700000000  9.4111011799999993  0.1772041300000000
  4.2538663500000000  9.5334462400000000  0.0662896300000000
 -0.1489766200000000  2.2658595300000002  6.7845823000000003
  4.1180023600000002  2.3391378500000002  6.7254718499999999
  8.2559559799999995  2.3788776299999999  6.7271559400000003
 -1.8787646800000000  5.8195533199999998  6.7903511999999999
  2.2388387199999999  5.9760881899999996  6.8370947800000001
  6.1510248199999999  5.9947920200000002  6.7133916899999999
 -4.0932798000000004  9.5905378700000004  6.7387024799999997
 -0.0143539700000000  9.6952502000000003  6.8132958099999996
  4.1806057900000004  9.4249342600000006  6.7448012500000001
  2.0722787399999998  1.1067519500000000  3.3702998599999998
  6.0253479700000003  1.0773043499999999  3.3200247100000002
 10.3467376099999999  1.2020898799999999  3.3204173899999998
  0.0883859200000000  4.6991409400000004  3.2979512500000001
  4.1407544700000001  4.7219789700000003  3.3600207800000002
  8.3539599800000008  4.8072353600000000  3.5275152300000001
 -2.1397421599999999  8.3533015200000005  3.3196379500000002
  2.1507827599999998  8.5015442599999993  3.2907311799999999
  6.3566472300000001  8.3541916999999994  3.3495935200000000
  2.0914257599999999  1.1890209400000000 10.1569838000000008
  6.3069427700000000  1.1728810599999999  9.8700991600000005
 10.4840634700000006  1.2533219000000000 10.1313068299999998
  0.0974991000000000  4.6889142499999998  9.8853132299999995
  4.1539630699999996  4.7858062200000004 10.0746179500000004
  8.3011237700000002  4.7422984599999998 10.1214266199999994
 -2.0687634099999999  8.3264961300000007 10.0709484099999997
  2.0258566600000001  8.4016075499999996 10.0213465999999993
  6.2426352800000000  8.2555343899999993  9.9509586999999993
 -0.0021975100000000  2.3868299500000001  2.5345403800000001
  4.2615289199999999  2.2193538400000001  2.5159788500000002
  8.2800324799999991  2.3741190799999998  2.5027474199999999
 -1.9572267900000000  6.0515362100000001  2.4868990100000001
  2.0667055699999999  6.0296881100000004  2.5385422200000001
  6.1631541900000002  5.8222289299999996  2.6019919200000001
 -4.1591671500000000  9.3821927899999995  2.7026765600000000
 -0.0751478100000000  9.5169254199999997  2.7553896800000000
  4.2693276899999999  9.6584699000000001  2.5908839100000001
 -0.0358248900000000  2.4490960700000000  9.2489586900000003
  4.1932956600000004  2.4774027799999998  9.3458795200000004
  8.2680579499999993  2.3793341600000000  9.2548155399999992
 -2.0870604300000002  5.9242646800000003  9.2308576200000001
  2.0849298200000002  5.9897248899999997  9.2550769699999993
  6.1673338500000003  5.9318765300000003  9.2155448399999997
 -4.1040587500000001  9.4780128999999995  9.3339185100000002
 -0.0578560000000000  9.3825606300000004  9.2151496099999992
  4.1015525500000001  9.3969223900000003  9.3673154099999998
  2.0623280899999998  1.1669305200000000  5.8988009000000003
  6.1336076000000004  1.2136884100000001  5.8981314600000001
 10.2522690200000000  1.1432123900000000  5.9880499399999998
  0.1101863700000000  4.5898228400000001  5.9490810200000004
  4.1342055200000001  4.7938451799999999  5.8961872900000003
  8.3832269900000007  4.8593314799999998  5.9970030500000000
 -2.0889809700000002  8.2375991000000006  5.8571692799999999
  2.1887730500000000  8.4687731900000003  5.9898301800000002
  6.2137720600000002  8.3016810299999992  5.8302185199999998
  1.9413697200000000  1.3387538400000001 12.7758190000000003
  6.2193293000000001  1.1931460199999999 12.5970437499999992
 10.2189841300000008  1.1636583700000001 12.6680743200000006
  0.2365161500000000  4.7563590500000004 12.5935213299999997
  4.1057735600000003  4.7705935699999999 12.5886531700000006
  8.1983147100000000  4.9408092799999999 12.6897189299999997
 -2.0854254100000000  8.3344115199999997 12.6169484599999997
  2.1343535299999998  8.4908526599999998 12.7456704500000004
  6.1625186799999998  8.5261540700000005 12.7443054900000003
