Ga N  O  Zn
 1.0000000000000000
     4.8374999999999986   -8.3787957816144463    0.0000000000000000
     4.8374999999999986    8.3787957816144463    0.0000000000000000
     0.0000000000000000    0.0000000000000000   10.3952000000000009
 Ga  N   O   Zn 
  14  14  22  22
Direct
  0.2222222222222220  0.1111111111111110  0.2495418550000000
  0.4444444444444444  0.2222222222222220  0.9995418550000001
  0.1111111111111112  0.8888888888888888  0.4995418550000001
  0.4444444444444444  0.5555555555555554  0.9995418550000001
  0.5555555555555554  0.7777777777777777  0.7495418550000000
  0.8888888888888886  0.1111111111111109  0.2495418550000000
  0.7777777777777777  0.2222222222222220  0.9995418550000001
  0.7777777777777777  0.5555555555555554  0.4995418550000001
  0.8888888888888887  0.4444444444444443  0.2495418550000000
  0.2222222222222220  0.1111111111111110  0.7495418550000000
  0.8888888888888887  0.7777777777777777  0.7495418550000000
  0.7777777777777778  0.8888888888888888  0.9995418550000001
  0.2222222222222221  0.4444444444444444  0.2495418550000000
  0.2222222222222220  0.7777777777777778  0.7495418550000000
  0.8888888888888887  0.4444444444444443  0.4379581450000000
  0.5555555555555554  0.1111111111111109  0.4379581450000000
  0.7777777777777777  0.5555555555555554  0.1879581450000000
  0.8888888888888886  0.1111111111111109  0.4379581450000000
  0.7777777777777777  0.5555555555555554  0.6879581450000000
  0.7777777777777778  0.8888888888888888  0.1879581450000000
  0.8888888888888887  0.7777777777777777  0.9379581450000001
  0.4444444444444444  0.5555555555555554  0.1879581450000000
  0.7777777777777778  0.8888888888888888  0.6879581450000000
  0.1111111111111110  0.5555555555555554  0.6879581450000000
  0.1111111111111110  0.5555555555555554  0.1879581450000000
  0.2222222222222220  0.7777777777777778  0.4379581450000000
  0.1111111111111110  0.2222222222222221  0.6879581450000000
  0.2222222222222221  0.4444444444444444  0.4379581450000000
  0.8888888888888887  0.4444444444444443  0.9379581450000001
  0.8888888888888887  0.7777777777777777  0.4379581450000000
  0.4444444444444445  0.8888888888888888  0.1879581450000000
  0.7777777777777777  0.2222222222222220  0.6879581450000000
  0.8888888888888886  0.1111111111111109  0.9379581450000001
  0.1111111111111110  0.2222222222222221  0.1879581450000000
  0.7777777777777777  0.2222222222222220  0.1879581450000000
  0.4444444444444445  0.8888888888888888  0.6879581450000000
  0.2222222222222221  0.4444444444444444  0.9379581450000001
  0.2222222222222220  0.1111111111111110  0.4379581450000000
  0.2222222222222220  0.1111111111111110  0.9379581450000001
  0.5555555555555554  0.7777777777777777  0.4379581450000000
  0.2222222222222220  0.7777777777777778  0.9379581450000001
  0.5555555555555554  0.1111111111111109  0.9379581450000001
  0.1111111111111112  0.8888888888888888  0.6879581450000000
  0.1111111111111112  0.8888888888888888  0.1879581450000000
  0.4444444444444444  0.2222222222222220  0.1879581450000000
  0.4444444444444444  0.2222222222222220  0.6879581450000000
  0.5555555555555554  0.4444444444444443  0.4379581450000000
  0.5555555555555554  0.7777777777777777  0.9379581450000001
  0.4444444444444444  0.5555555555555554  0.6879581450000000
  0.5555555555555554  0.4444444444444443  0.9379581450000001
  0.1111111111111110  0.5555555555555554  0.9995418550000001
  0.1111111111111110  0.2222222222222221  0.4995418550000001
  0.5555555555555554  0.1111111111111109  0.2495418550000000
  0.4444444444444444  0.2222222222222220  0.4995418550000001
  0.7777777777777778  0.8888888888888888  0.4995418550000001
  0.8888888888888887  0.7777777777777777  0.2495418550000000
  0.1111111111111110  0.2222222222222221  0.9995418550000001
  0.7777777777777777  0.5555555555555554  0.9995418550000001
  0.8888888888888887  0.4444444444444443  0.7495418550000000
  0.5555555555555554  0.4444444444444443  0.7495418550000000
  0.5555555555555554  0.1111111111111109  0.7495418550000000
  0.1111111111111110  0.5555555555555554  0.4995418550000001
  0.5555555555555554  0.7777777777777777  0.2495418550000000
  0.4444444444444445  0.8888888888888888  0.9995418550000001
  0.5555555555555554  0.4444444444444443  0.2495418550000000
  0.4444444444444444  0.5555555555555554  0.4995418550000001
  0.8888888888888886  0.1111111111111109  0.7495418550000000
  0.1111111111111112  0.8888888888888888  0.9995418550000001
  0.2222222222222221  0.4444444444444444  0.7495418550000000
  0.7777777777777777  0.2222222222222220  0.4995418550000001
  0.2222222222222220  0.7777777777777778  0.2495418550000000
  0.4444444444444445  0.8888888888888888  0.4995418550000001
