Cd S 
 1.0000000000000000
    12.3977854500000007    0.0000000000000000    0.0000000000000000
    -6.1988927199999999   10.7367971499999992    0.0000000000000000
     0.0000000000000000    0.0000000000000000   13.4479464199999992
 Cd  S  
  36  36
Cartesian
  0.1831642000000000  2.2585354199999998 13.3948556799999992
  4.2180586900000003  2.2404033299999999 13.3809418900000008
  8.4011803500000006  2.5419449900000002  0.0114386900000000
 -2.0566557300000001  5.9413963100000000 13.3619079400000000
  2.0517283000000002  5.9636497200000003 13.4435494799999997
  6.2347907600000001  6.0650633899999997 13.3711885000000006
 -3.9787095099999998  9.4875550200000003 13.2791010000000007
  0.0816819500000000  9.5311456600000000  0.0293522900000000
  4.2136155700000000  9.3636394999999997  0.1393503100000000
 -0.0038670500000000  2.3270525100000001  6.7396669600000001
  4.1418484400000004  2.5629374700000001  6.8678115000000002
  8.1266433500000002  2.3554499400000002  6.8441939500000002
 -2.0180865899999998  5.9615739799999998  6.7543612700000004
  2.1459778100000002  5.9230548599999997  6.7838684799999998
  6.2862324000000003  6.0806766200000002  6.8038252300000002
 -4.0458917500000000  9.5478238799999993  6.5777999500000002
 -0.0497939000000000  9.4906680500000000  6.7524993999999996
  4.1587088799999998  9.6813660200000005  6.6712560500000002
  1.9572303300000000  1.2574215300000000  3.2134455599999998
  6.1341203699999998  1.2049795800000001  3.3528524900000001
 10.3395661099999998  1.0922552299999999  3.3144298299999999
  0.0202907800000000  4.7548925100000003  3.3621041400000000
  4.1421571500000001  4.7756264499999999  3.3621362800000001
  8.3871549200000004  4.6811091300000003  3.2521076000000000
 -2.1400155299999999  8.3911609600000006  3.3747074200000000
  2.1469352300000000  8.2847923699999999  3.2793046000000001
  6.0899279100000001  8.3519138900000005  3.3035809600000001
  2.1033534800000000  1.2000808100000000 10.1128398399999995
  6.2379093599999997  1.1618572700000001 10.1563342599999995
 10.2901715300000003  1.2563941300000001 10.2571734200000009
  0.0422864900000000  4.8862470199999999 10.2905325300000001
  4.0147863900000003  4.7338822100000000 10.0406800399999998
  8.2163779100000003  4.7959681700000001 10.0848203699999992
 -1.9761490399999999  8.4077976299999992 10.2024733600000008
  2.0942833300000001  8.3424942800000004 10.0801715499999993
  5.9965666400000002  8.3725120099999994 10.0425795600000001
 -0.0050452800000000  2.3170607400000001  2.7307843799999998
  4.2172628100000003  2.3113698000000000  2.4752716499999998
  8.2124877299999994  2.4094382099999998  2.5663123600000000
 -2.1424002400000002  6.0395747699999998  2.6156418499999998
  2.0745526200000000  5.9412121800000000  2.5343121700000002
  6.1891432300000000  5.9889212399999998  2.5298209599999999
 -4.2156428500000001  9.5318350699999996  2.5779223800000000
 -0.1092226300000000  9.4773850199999998  2.4888640299999998
  4.1510469199999998  9.5623653700000002  2.5489771499999998
  0.0351003600000000  2.3312861300000001  9.3264647200000006
  4.0850610100000004  2.3746138299999999  9.2449782299999992
  8.2657509699999991  2.5264639299999998  9.3671419300000007
 -1.9735822000000001  6.0973035199999996  9.1429972100000008
  2.0135260700000002  5.9357012999999998  9.1365602100000007
  6.1642637899999997  5.9952257800000002  9.2647268100000009
 -4.1334243300000004  9.4871120199999996  9.2300536999999991
  0.0321149800000000  9.4693386499999992  9.0578122699999994
  4.0893399800000001  9.5662453299999992  9.3462253999999998
  1.8893531400000001  1.2121286700000000  5.8837970200000003
  6.3212513100000001  1.2444955000000000  5.8417101999999996
 10.3788533300000001  1.1739523800000000  5.8944219799999997
  0.1570473400000000  4.7799737799999997  5.9464028600000001
  3.9187243199999999  4.6843450999999998  5.8132524600000002
  8.3484888900000005  4.7227587800000004  5.7914634200000004
 -1.9603593399999999  8.5175777299999993  5.9118825199999998
  2.0348795900000001  8.3525918099999998  5.8482976700000000
  6.2369204600000003  8.4594593400000004  5.8435307800000000
  1.9649073500000001  1.2128570599999999 12.5922853299999993
  6.2242763900000000  1.1304781200000000 12.5961252500000001
 10.3284550300000006  1.1856723499999999 12.6226094999999994
  0.0079138200000000  4.7555642000000002 12.6677572200000004
  4.1158641800000000  4.7203551299999997 12.4632403099999998
  8.2625098799999996  4.7855467100000002 12.6224072500000002
 -2.0916372000000001  8.4664547900000002 12.4251042199999997
  2.2694875300000001  8.4174436799999999 12.5962684700000001
  6.1300677900000000  8.2026250600000008 12.5422314000000004
