Cd S                                    
   1.00000000000000     
    12.3977854500000007    0.0000000000000000    0.0000000000000000
    -6.1988927199999999   10.7367971499999992    0.0000000000000000
     0.0000000000000000    0.0000000000000000   13.4479464199999992
   Cd   S 
    36    36
Direct
  0.1197263502253634  0.2205691200936926  0.0029555598125270
  0.4428153998747959  0.2242261101114309  0.9993863003508281
  0.7622332701739367  0.2051906596745212  0.9995416601310367
  0.1120750596423008  0.5573122297462803  0.9988762797286626
  0.4519960298172165  0.5690738396785306  0.0005007701391477
  0.7581085797376801  0.5483575798020937  0.0037178598455512
  0.1151276304286739  0.8811657804301518  0.9947738897966261
  0.4380142900303881  0.8739415096428473  0.0021595297224550
  0.7773686399938597  0.8858895196692771  0.9978028399967442
  0.1158269695424679  0.2163935396693262  0.4904588398858323
  0.4454131402318069  0.2223373401443069  0.4995475703270955
  0.7754526696482671  0.2054923697613091  0.4952472698801813
  0.1073242195080297  0.5533996895899236  0.5002179797501043
  0.4417213998746732  0.5539384498849387  0.5022418002763018
  0.7773859004771708  0.5559626503700841  0.5000848597967575
  0.1187056501182724  0.8892194801314659  0.4988119301266494
  0.4448110402130965  0.8884257303864587  0.4998445398327220
  0.7745057901689947  0.8842247001006243  0.4995142998197650
  0.2222117096608685  0.1089786501182033  0.2502479200091869
  0.5492307198481043  0.1024785096177396  0.2540846597156516
  0.8919810801956913  0.1256565604389763  0.2511924099412042
  0.2258136902787840  0.4477099700072102  0.2509024697616269
  0.5629058003330272  0.4528403100174074  0.2499928200933468
  0.8694321103140723  0.4398950603253198  0.2535017498976657
  0.2343762599953791  0.7794619804286782  0.2589971101327464
  0.5618706396155773  0.7846159597045173  0.2594913900616191
  0.9010189201828283  0.7980619704638841  0.2423045503181029
  0.2184400396982156  0.1079536097969367  0.7512062596394529
  0.5563902702351200  0.1092634696931043  0.7448484599182379
  0.9012530800479155  0.1323209901567353  0.7448233698420736
  0.2159070201516826  0.4387856196016529  0.7467059598829096
  0.5533662100140901  0.4404531196717230  0.7492924596289399
  0.8832443799422052  0.4397998103186680  0.7491904202574915
  0.2196745305368282  0.7858226603452252  0.7503162300671917
  0.5603981502262059  0.7693262100979510  0.7517473801773207
  0.8855996799755630  0.7837745104460723  0.7502428902449481
  0.1112987297607617  0.2224375795345992  0.1885875999794493
  0.4585180297178084  0.2348691602132007  0.2009870098813167
  0.7670571099110362  0.2158968701387849  0.1879531796944818
  0.0999209203535472  0.5479345402367031  0.1893820997243409
  0.4493035696407190  0.5689624498493941  0.1748103298882739
  0.7794416096699948  0.5575116998461667  0.1953467501991994
  0.1109413804323651  0.8901369101492236  0.1862674197061551
  0.4343652899154549  0.8841137601263114  0.1878232200749679
  0.7754686301425195  0.8827266202006996  0.1893089398552235
  0.1101923598392673  0.2186861600528616  0.6890136799042992
  0.4451784698089796  0.2210036900995220  0.6887718898273221
  0.7822393398068854  0.2299176901186044  0.6896562196445757
  0.1061717899987542  0.5581219097540639  0.6807247801333816
  0.4422343402450650  0.5510258401407881  0.6860678197139904
  0.7822039800094487  0.5644563602470569  0.6831042200122042
  0.1310446297203498  0.8953096696997775  0.6846462100939874
  0.4363381200259795  0.8732679996659911  0.6927476700937092
  0.7777698302801852  0.8888831302917950  0.6883887703651368
  0.2271369797640901  0.1128222497898292  0.4440644603639043
  0.5592318294949834  0.1166839097821679  0.4427759602867312
  0.9099360799614544  0.1269562804397424  0.4373877599075087
  0.2141660800165610  0.4325236702455513  0.4490801503356963
  0.5692293899645406  0.4498140304345810  0.4302053101130667
  0.8866016298900945  0.4506381402576807  0.4426804497931656
  0.2044155799703944  0.7765993800115680  0.4447028403612592
  0.5653348205178901  0.7942691904168058  0.4332323700617451
  0.8948788700269077  0.7843715795636470  0.4311203799397632
  0.2206952099105592  0.1082413799724264  0.9431266398516769
  0.5440508700026285  0.0909425498459768  0.9469079197892896
  0.8970017603718858  0.1150985999581806  0.9290317502618350
  0.2233077001430530  0.4559034497545653  0.9422690903314859
  0.5697677495920175  0.4494285998501866  0.9414052498879570
  0.8900326299993395  0.4459689601195436  0.9346810596528243
  0.2084216806234451  0.7658418404598422  0.9347496597179372
  0.5537895106036643  0.7799054404227093  0.9456261501077563
  0.8870633902680112  0.7750589597382884  0.9225584801221984
 
  0.00000000E+00  0.00000000E+00  0.00000000E+00
  0.00000000E+00  0.00000000E+00  0.00000000E+00
  0.00000000E+00  0.00000000E+00  0.00000000E+00
  0.00000000E+00  0.00000000E+00  0.00000000E+00
  0.00000000E+00  0.00000000E+00  0.00000000E+00
  0.00000000E+00  0.00000000E+00  0.00000000E+00
  0.00000000E+00  0.00000000E+00  0.00000000E+00
  0.00000000E+00  0.00000000E+00  0.00000000E+00
  0.00000000E+00  0.00000000E+00  0.00000000E+00
  0.00000000E+00  0.00000000E+00  0.00000000E+00
  0.00000000E+00  0.00000000E+00  0.00000000E+00
  0.00000000E+00  0.00000000E+00  0.00000000E+00
  0.00000000E+00  0.00000000E+00  0.00000000E+00
  0.00000000E+00  0.00000000E+00  0.00000000E+00
  0.00000000E+00  0.00000000E+00  0.00000000E+00
  0.00000000E+00  0.00000000E+00  0.00000000E+00
  0.00000000E+00  0.00000000E+00  0.00000000E+00
  0.00000000E+00  0.00000000E+00  0.00000000E+00
  0.00000000E+00  0.00000000E+00  0.00000000E+00
  0.00000000E+00  0.00000000E+00  0.00000000E+00
  0.00000000E+00  0.00000000E+00  0.00000000E+00
  0.00000000E+00  0.00000000E+00  0.00000000E+00
  0.00000000E+00  0.00000000E+00  0.00000000E+00
  0.00000000E+00  0.00000000E+00  0.00000000E+00
  0.00000000E+00  0.00000000E+00  0.00000000E+00
  0.00000000E+00  0.00000000E+00  0.00000000E+00
  0.00000000E+00  0.00000000E+00  0.00000000E+00
  0.00000000E+00  0.00000000E+00  0.00000000E+00
  0.00000000E+00  0.00000000E+00  0.00000000E+00
  0.00000000E+00  0.00000000E+00  0.00000000E+00
  0.00000000E+00  0.00000000E+00  0.00000000E+00
  0.00000000E+00  0.00000000E+00  0.00000000E+00
  0.00000000E+00  0.00000000E+00  0.00000000E+00
  0.00000000E+00  0.00000000E+00  0.00000000E+00
  0.00000000E+00  0.00000000E+00  0.00000000E+00
  0.00000000E+00  0.00000000E+00  0.00000000E+00
  0.00000000E+00  0.00000000E+00  0.00000000E+00
  0.00000000E+00  0.00000000E+00  0.00000000E+00
  0.00000000E+00  0.00000000E+00  0.00000000E+00
  0.00000000E+00  0.00000000E+00  0.00000000E+00
  0.00000000E+00  0.00000000E+00  0.00000000E+00
  0.00000000E+00  0.00000000E+00  0.00000000E+00
  0.00000000E+00  0.00000000E+00  0.00000000E+00
  0.00000000E+00  0.00000000E+00  0.00000000E+00
  0.00000000E+00  0.00000000E+00  0.00000000E+00
  0.00000000E+00  0.00000000E+00  0.00000000E+00
  0.00000000E+00  0.00000000E+00  0.00000000E+00
  0.00000000E+00  0.00000000E+00  0.00000000E+00
  0.00000000E+00  0.00000000E+00  0.00000000E+00
  0.00000000E+00  0.00000000E+00  0.00000000E+00
  0.00000000E+00  0.00000000E+00  0.00000000E+00
  0.00000000E+00  0.00000000E+00  0.00000000E+00
  0.00000000E+00  0.00000000E+00  0.00000000E+00
  0.00000000E+00  0.00000000E+00  0.00000000E+00
  0.00000000E+00  0.00000000E+00  0.00000000E+00
  0.00000000E+00  0.00000000E+00  0.00000000E+00
  0.00000000E+00  0.00000000E+00  0.00000000E+00
  0.00000000E+00  0.00000000E+00  0.00000000E+00
  0.00000000E+00  0.00000000E+00  0.00000000E+00
  0.00000000E+00  0.00000000E+00  0.00000000E+00
  0.00000000E+00  0.00000000E+00  0.00000000E+00
  0.00000000E+00  0.00000000E+00  0.00000000E+00
  0.00000000E+00  0.00000000E+00  0.00000000E+00
  0.00000000E+00  0.00000000E+00  0.00000000E+00
  0.00000000E+00  0.00000000E+00  0.00000000E+00
  0.00000000E+00  0.00000000E+00  0.00000000E+00
  0.00000000E+00  0.00000000E+00  0.00000000E+00
  0.00000000E+00  0.00000000E+00  0.00000000E+00
  0.00000000E+00  0.00000000E+00  0.00000000E+00
  0.00000000E+00  0.00000000E+00  0.00000000E+00
  0.00000000E+00  0.00000000E+00  0.00000000E+00
  0.00000000E+00  0.00000000E+00  0.00000000E+00
