Cd S 
 1.0000000000000000
    12.3977854500000007    0.0000000000000000    0.0000000000000000
    -6.1988927199999999   10.7367971499999992    0.0000000000000000
     0.0000000000000000    0.0000000000000000   13.4479464199999992
 Cd  S  
  36  36
Cartesian
 -0.0385760800000000  2.3614659800000002  0.0812966000000000
  4.1412401499999998  2.4012787800000002  0.0117315900000000
  8.0481956199999996  2.3070435200000001 13.4117621699999994
 -1.9926588599999999  5.9064379499999999 13.2832260200000007
  2.1341245999999998  5.8992940000000003  0.0105254400000000
  6.3413882199999998  5.9450550900000003 13.4070448899999999
 -4.1310406100000003  9.5435978800000001  0.0015102000000000
 -0.0072033600000000  9.5435754399999997  0.0036101000000000
  4.2124250700000001  9.6087853800000005  0.1313128800000000
  0.0677125500000000  2.4380617600000001  6.7264632300000002
  4.1780377700000004  2.4317755800000000  6.7068401199999998
  8.2771129800000001  2.3733098500000001  6.7611600100000002
 -2.0641492600000002  5.8907543899999997  6.7318381100000000
  2.1883301400000001  5.8641716900000000  6.6541343900000003
  6.2031883700000003  5.9810785500000003  6.8113143899999997
 -4.1401367400000000  9.5791690999999997  6.7250655899999998
  0.1932373400000000  9.4808865000000004  6.7251622800000002
  4.3250310599999997  9.5501588099999992  6.6986575899999998
  2.0952101200000000  1.2420215299999999  3.2366201399999999
  6.1016534800000004  1.3910198199999999  3.3614381999999998
 10.2292654299999999  1.2335872400000001  3.2327326099999998
  0.0933155900000000  4.6829802300000001  3.3997770799999998
  3.9618885200000000  4.8296224399999996  3.4397091500000001
  8.2008422400000001  4.8909589699999998  3.5673309600000001
 -2.0556343400000001  8.2334726299999996  3.3812463500000001
  2.1326106500000002  8.3964178100000009  3.2801098600000000
  6.3058298300000004  8.3807154599999993  3.3207187600000001
  1.9827109999999999  1.1182026400000000 10.1274002000000003
  6.3829062399999996  1.2164494800000001 10.1626989099999996
 10.1695411399999998  1.2001254699999999 10.0862917099999994
  0.1023469400000000  4.8426165399999999 10.0238288200000003
  4.0805136299999996  4.7765583999999999 10.1479883300000004
  8.2960762599999995  4.6968775200000001 10.0083804900000004
 -2.0352104799999999  8.5205228399999999 10.1626100200000007
  2.0415706100000000  8.2971196099999993 10.1669198099999996
  6.0955489399999996  8.3688310000000001 10.1971958500000000
  0.1963147200000000  2.3665915100000001  2.6086353400000002
  4.1598110400000001  2.3482742200000000  2.4947839500000000
  8.2338243200000001  2.4279679900000000  2.5762536200000001
 -2.0504812600000002  5.9564858100000002  2.5303087099999999
  2.0695439200000001  5.9880961199999998  2.5304843400000001
  6.2036144200000001  5.9671622700000002  2.5393730300000001
 -3.9291918300000002  9.4570825900000006  2.4431083299999998
 -0.0654461700000000  9.4222296599999993  2.4171161400000001
  4.0253377199999996  9.5156807000000008  2.4620850000000001
  0.0218392000000000  2.2138715300000000  9.1321019499999991
  4.0375579000000004  2.4487222100000001  9.0537395600000004
  8.2739274999999992  2.4693303200000001  9.0797855399999996
 -2.1174085400000000  5.9964246499999998  9.2658657200000007
  2.1912744900000001  5.7729537899999999  9.1851181900000007
  6.1749338199999997  5.8701552000000001  9.0394341699999998
 -4.1835744899999998  9.5440561299999995  9.2812671099999999
 -0.0151415300000000  9.6591443899999998  9.3788318299999993
  4.0542387499999997  9.5591983400000000  9.2202572699999994
  2.1587073000000001  1.2541387600000000  5.8415158700000003
  6.2359023499999999  1.1707141599999999  5.8642290499999996
 10.3551591100000007  1.1707391800000000  5.9012218000000001
 -0.0351118300000000  4.7727523100000004  5.9666053100000003
  4.1373590800000004  4.8550154000000001  5.8450716399999996
  8.2600437099999997  4.7571921200000000  5.9261739200000001
 -2.0680111700000001  8.3484753200000004  5.9682131399999996
  2.0180091800000000  8.3780786099999993  5.9093354800000002
  6.1983892500000000  8.3522739000000001  5.8939588299999999
  2.0890755099999998  1.0698845800000001 12.6415911500000000
  6.1791914700000001  1.2303674899999999 12.4762879099999999
 10.4836904299999993  1.1058702400000000 12.6003623000000005
 -0.0014765100000000  4.7673362399999997 12.5764382700000006
  4.2998639200000000  4.7510376799999996 12.5668627900000001
  8.2520232799999995  4.8216166600000001 12.6800378800000004
 -1.9851421400000000  8.3600747200000001 12.7021132300000001
  2.0146300400000001  8.2632539299999994 12.5652938200000008
  6.0637508499999999  8.2722867999999998 12.4738153700000005
