Cd S 
 1.0000000000000000
    12.3977854500000007    0.0000000000000000    0.0000000000000000
    -6.1988927199999999   10.7367971499999992    0.0000000000000000
     0.0000000000000000    0.0000000000000000   13.4479464199999992
 Cd  S  
  36  36
Cartesian
  0.0243314600000000  2.4344146800000002  0.1362742300000000
  4.1342166799999998  2.3935645999999999  0.0023863400000000
  8.2790365599999998  2.3334618400000000 13.3677122100000005
 -2.0701511600000000  5.9581975800000002  0.0013723600000000
  2.0282736699999999  5.8179623400000002  0.0818052000000000
  6.2147757800000001  6.0033721099999999 13.4339062299999998
 -4.1949014800000004  9.6761659699999996 13.3691184599999993
  0.1366110200000000  9.5455182599999997  0.0339073800000000
  4.0531776900000001  9.5322037700000006 13.3782560700000008
 -0.1726815600000000  2.4057346599999998  6.5482108400000003
  4.2438877399999999  2.4603373899999998  6.8173233399999997
  8.2755817900000004  2.2962075099999999  6.9505963900000003
 -2.1151925600000001  6.0216793199999996  6.7405525099999997
  2.0785675200000000  5.9571032800000001  6.7466282900000003
  6.2496396499999998  5.9834019899999999  6.7793509099999998
 -4.1425046500000002  9.6111036700000003  6.7500003700000004
  0.0239773800000000  9.5314955799999996  6.7056412400000003
  4.1323811900000003  9.5342746900000002  6.7855130299999997
  2.0351390700000000  1.2068820300000001  3.3313993900000001
  5.9948426599999998  1.1326064800000000  3.2870914899999999
 10.3342005300000004  1.1945244100000001  3.3659616799999998
 -0.1315572400000000  4.7973276599999997  3.5482027399999998
  4.1647240999999999  4.8084061000000000  3.3837180800000000
  8.2517350300000007  4.7994052299999996  3.3848327800000000
 -1.9629744099999999  8.4782578599999994  3.4287942500000002
  2.0636060000000001  8.3511425599999995  3.3656383900000000
  6.1638545400000000  8.3410577000000004  3.3773664800000001
  2.1436119400000000  1.2024534200000001 10.1322390400000000
  6.1100517400000003  1.1160339100000001 10.0293995000000002
 10.4311073299999997  1.1722584400000000 10.0760387300000005
 -0.2196910500000000  4.8235036500000001  9.9852055100000001
  4.0983009800000003  4.8170610399999996 10.2628680899999996
  8.3331185500000000  4.9269792099999998 10.0776785699999998
 -2.0233607999999998  8.4217923999999993  9.8950331299999998
  2.1430101000000001  8.3388566599999994  9.8668751500000003
  6.1473171400000002  8.4073252099999998 10.0159083899999999
 -0.0917387100000000  2.5152320600000002  2.5517335800000001
  4.0944457600000002  2.3673892599999999  2.3100539400000000
  8.2469032400000000  2.5689571600000001  2.6086478400000002
 -2.2282829899999999  6.0329612199999998  2.5536492399999999
  1.8987772500000000  6.0900788400000003  2.5041598500000002
  6.2004453000000002  5.9903123000000003  2.4792630000000000
 -4.1403896500000004  9.5621916500000008  2.6508107900000000
  0.1085245800000000  9.5540581000000007  2.4687869099999999
  4.0391514500000003  9.3886755599999994  2.4619545500000002
 -0.0963274400000000  2.3388721100000001  9.4550555900000006
  4.0826466600000000  2.4109617600000002  9.4021550000000005
  8.3693718500000003  2.4511297299999999  9.4185130899999994
 -2.0300239200000001  5.8603682800000003  9.0966791199999992
  1.9354875899999999  5.9819073200000004  9.2283249699999992
  6.2000495000000004  6.0564446399999996  9.3438861299999996
 -4.2231076200000004  9.5576389299999995  9.2478811000000007
  0.0107791400000000  9.5484379199999996  9.2301433999999993
  4.1914855900000001  9.6883396699999995  9.2596991600000003
  1.9693948500000000  1.1012763999999999  5.8571177800000003
  6.2058115000000003  1.1678896299999999  6.0330816000000000
 10.3369409399999999  1.1978062199999999  5.8979035199999998
  0.0340335400000000  4.7966647699999996  5.9349438699999997
  4.1773444199999998  4.7757806299999999  5.8932568500000002
  8.3611234200000002  4.5863592600000000  5.8464906699999997
 -2.0313605300000002  8.2647421600000008  5.8136027800000001
  2.0961580600000000  8.2539218299999995  5.8594216799999996
  6.3219836500000000  8.3093561299999994  5.8426553200000004
  2.1884805200000002  1.0623543300000000 12.6465297700000008
  6.4421365300000000  1.1992701800000001 12.6099411400000001
 10.3611928700000000  1.1905135700000000 12.5938803900000007
 -0.0181814100000000  4.6934872600000004 12.6464200299999998
  4.1347358400000003  4.7727784000000000 12.6200023500000000
  8.2668771200000002  4.8039768499999997 12.6051938799999999
 -1.9978045000000000  8.4560219599999993 12.4866784699999993
  2.0219539700000002  8.3355676499999998 12.5721638400000000
  6.2047102699999996  8.3544427300000006 12.6352844599999994
