Cd S 
 1.0000000000000000
    12.3977854500000007    0.0000000000000000    0.0000000000000000
    -6.1988927199999999   10.7367971499999992    0.0000000000000000
     0.0000000000000000    0.0000000000000000   13.4479464199999992
 Cd  S  
  36  36
Cartesian
 -0.0040004500000000  2.3856859400000001 13.4433392900000008
  4.0600167999999996  2.4276412600000001  0.0576185300000000
  8.1162822200000004  2.4004902700000001  0.1858773800000000
 -2.0163600200000000  6.1018958599999999 13.3327735000000001
  2.0929687299999999  5.9382042600000000 13.4388866700000005
  6.0756299199999999  5.9900852200000001  0.0691748900000000
 -3.9992444599999999  9.4166923699999998  0.0073011600000000
  0.2441716600000000  9.5542585500000001  0.0505892900000000
  4.1137577299999997  9.7099703500000007  0.1546917300000000
  0.0215596900000000  2.3427112700000001  6.8426225599999997
  4.0957828000000003  2.3932257500000000  6.6935887899999997
  8.3624946100000006  2.3719083799999998  6.7243465200000001
 -2.1316400799999999  5.8870302199999998  6.7086348899999999
  2.0538478900000001  5.9727930699999998  6.5864968700000004
  6.0699693999999997  5.8682493100000004  6.8664798899999999
 -4.1162700100000000  9.5908872400000007  6.7375470300000000
 -0.0019768800000000  9.5337359199999998  6.7264128000000003
  4.1192743099999998  9.4986093000000000  6.6362112399999997
  2.0375905400000001  1.3045513500000001  3.1430732699999999
  5.9822718600000000  1.2806861300000001  3.4421964799999998
 10.3235157500000003  1.1961619800000001  3.3685825500000002
  0.0531432300000000  4.8179137499999998  3.4657731500000000
  4.1211252399999996  4.7824476400000000  3.3714286800000002
  8.3580171500000002  4.7844355600000004  3.3895226200000002
 -2.0971163399999999  8.3206502699999998  3.3728910100000000
  2.0705198100000000  8.3492781199999992  3.3600125799999998
  6.3739153699999997  8.2983753900000004  3.3891325000000001
  2.2310240200000000  1.3188772400000000 10.1638090400000003
  6.0566399200000003  1.2167219800000000  9.9388776100000005
 10.4364632900000007  1.2102632600000001 10.1159762999999998
 -0.0719522200000000  4.6874987099999998  9.9442784399999997
  4.2189667000000002  4.8780596799999998 10.0606819800000000
  8.2232131800000001  4.7248955099999996 10.0324720900000006
 -2.0967189899999998  8.3412035099999997 10.1194692699999997
  1.9498348100000000  8.2119074500000000 10.0241482099999999
  6.1954747200000000  8.3831395000000004 10.0893863499999998
 -0.0152191500000000  2.5331946099999998  2.4959879400000000
  4.1606807999999997  2.1455431900000002  2.5744384199999999
  8.2542369600000001  2.4354348899999998  2.5574142599999998
 -1.9169917700000001  5.9287568500000001  2.6952704999999999
  2.1174174099999998  5.9006864600000002  2.6241967599999998
  6.0307337499999996  5.8785033799999997  2.4776815200000000
 -4.1422766600000003  9.5555821800000000  2.5343960800000001
  0.0209716000000000  9.5521275100000000  2.5041267700000001
  4.2995899399999997  9.5047904800000005  2.4010950599999998
 -0.0253164600000000  2.3893628699999998  9.2851389100000006
  4.1261388400000003  2.4033890900000001  9.2933716099999994
  8.1972046100000000  2.5872672699999999  9.3487442000000005
 -2.0645586400000000  5.9821533000000002  9.2835754500000007
  2.2005599899999999  6.1216820600000004  9.3352659899999999
  6.2911026200000002  5.9207994900000003  9.3774430599999992
 -4.1284318700000000  9.4525079699999992  9.1768606199999994
 -0.0143505600000000  9.5032396499999994  9.4343198000000008
  4.1882695400000003  9.6633694299999995  9.3449175899999997
  2.0614109100000002  1.1176634299999999  5.9744975000000000
  6.1996905900000003  1.2112594200000000  6.0236168000000001
 10.4296497200000005  1.2039330600000000  5.8456622800000000
 -0.0468066000000000  4.7952827300000003  5.9926601699999997
  4.1150873299999997  4.7649802699999997  5.9216681900000001
  8.4090990600000008  4.8536306700000003  5.8560097999999998
 -2.0733788600000000  8.3661771900000002  5.8894216300000002
  1.9929973299999999  8.4468388799999996  5.9328165400000001
  6.2020371799999996  8.1794823200000000  6.0524564600000001
  2.0277387099999999  1.1640462899999999 12.6340631200000004
  6.1904291300000001  1.1798372200000000 12.6074664399999996
 10.3542626299999991  1.1932475899999999 12.5458468799999991
  0.0489217300000000  4.7036429899999996 12.5655491999999995
  4.2932411500000001  4.7835948699999999 12.4522139400000000
  8.1290670600000006  4.6940271100000004 12.6865542199999997
 -2.0627677100000001  8.3553925099999997 12.6187867899999997
  1.9174973500000001  8.2452463900000001 12.7401195400000002
  6.1197119200000003  8.3818836200000000 12.5388421099999992
