Cd S 
 1.0000000000000000
    12.3977854500000007    0.0000000000000000    0.0000000000000000
    -6.1988927199999999   10.7367971499999992    0.0000000000000000
     0.0000000000000000    0.0000000000000000   13.4479464199999992
 Cd  S  
  36  36
Cartesian
 -0.0695606900000000  2.4812258300000001  0.0814991300000000
  4.1178930100000004  2.3111120100000000 13.4373402899999999
  8.3491019000000009  2.3614400000000000  0.0158875400000000
 -2.0774794900000000  6.1229810000000002 13.3565182700000005
  2.0753326900000002  6.0325853299999999  0.0737722100000000
  6.2052588000000002  6.0150813400000001 13.2098825299999998
 -4.1869479900000002  9.4860313600000001  0.0875811000000000
  0.1940983700000000  9.3997822400000004  0.0550767400000000
  4.0755014500000000  9.4119770900000006 13.4364065999999998
 -0.0277706000000000  2.4698604999999998  6.7879186000000002
  4.1581612000000003  2.3584970400000000  6.6528787600000001
  8.1230122300000005  2.4418883500000002  6.6482435200000003
 -1.9591844000000000  5.7828439899999999  6.8544338900000001
  2.1789915700000000  5.9860344400000001  6.5889897199999998
  6.2928491600000003  6.0004614800000002  6.6989736100000004
 -4.2446190799999997  9.4832757599999997  6.7619546499999998
  0.1461310900000000  9.5387679300000006  6.8115489299999998
  4.0706641499999998  9.5128410300000006  6.7729927200000004
  2.1122633999999998  1.0909827100000000  3.2442527900000000
  6.0648967200000001  1.0068895400000000  3.3291030099999999
 10.3303054000000003  1.2058177999999999  3.3806701100000001
 -0.0351376200000000  4.8355387399999996  3.2675699200000001
  4.1284410500000002  4.7987841099999997  3.2576002800000001
  8.3412849100000006  4.7500053299999996  3.2553383400000002
 -1.9359325400000000  8.5147922900000008  3.3320150300000000
  2.0581755199999998  8.3244957599999996  3.3563936000000001
  6.2145640300000000  8.2308134499999994  3.3207893600000000
  1.9781168800000000  1.1638890000000000 10.0227293199999998
  6.1973881899999999  1.1933405699999999 10.0868932400000002
 10.2999363400000004  1.1445664099999999 10.0991362500000008
 -0.2080550500000000  4.8001765599999997 10.0092169599999998
  4.0217807900000002  4.7847343599999999  9.9958804899999993
  8.3593446399999998  4.8216788199999998  9.8780716399999999
 -2.2181556699999998  8.1798285899999996 10.1395412700000005
  2.0586272999999999  8.3030655400000004 10.0360414400000000
  6.3175782800000002  8.2348216000000001 10.0770079199999998
  0.0111041400000000  2.3766973100000000  2.5075066399999999
  3.9707612999999999  2.3892335899999999  2.3936280900000000
  8.2304434999999998  2.5380084500000000  2.6159073099999999
 -2.0212883200000000  6.1851252600000004  2.4566119500000001
  2.0535437700000001  5.9618174899999996  2.5090219600000001
  6.3281294700000004  6.1026660100000001  2.4496264100000000
 -4.0942657400000000  9.5710783900000003  2.4685490200000002
 -0.0245176100000000  9.6002691599999999  2.4315100100000002
  4.1949245499999996  9.5193760899999997  2.6629431200000000
  0.0689132200000000  2.3436854199999999  9.1857638300000009
  4.1340067200000004  2.4160748399999998  9.1563660799999997
  8.4151225299999997  2.4678233000000001  9.1745849600000007
 -2.0078217800000000  5.9121781599999998  9.3446570999999992
  2.1090358899999999  5.9839266999999996  9.2588934900000002
  6.1935543700000002  5.9340579299999998  9.2058920400000002
 -4.2801862799999997  9.6761572800000000  9.2319100499999998
 -0.0381089300000000  9.4814774499999999  9.2190363400000006
  4.2112859000000000  9.3741974199999998  9.3197931900000004
  2.0370500599999999  1.2022555500000001  5.9004025499999999
  6.3685910100000003  1.2214652900000000  5.9629713999999998
 10.3300132999999992  1.1973086700000000  5.8936433399999997
  0.0061366600000000  4.8529309600000001  5.8141814399999996
  4.3381963299999997  4.8297885400000000  5.8071410400000003
  8.2844562499999999  4.8583708600000000  6.0987304399999998
 -2.0795826499999999  8.3117911200000005  5.9263291100000002
  1.8919481199999999  8.2339274400000004  5.9045781300000000
  6.0740604200000003  8.4109979500000005  5.9797736700000002
  2.1935302000000001  1.0994739000000000 12.4763711599999993
  6.1317192299999999  1.2103792200000001 12.6062959299999999
 10.4802106100000003  1.0398127399999999 12.6126182199999999
  0.0054544100000000  4.7790411800000001 12.6374725800000007
  4.0119458100000003  4.9555962100000004 12.5549983399999991
  8.2488031399999997  4.7939222700000004 12.5837439999999994
 -2.0572394799999998  8.3537584700000007 12.6137704399999997
  2.0575000900000000  8.3345453999999997 12.6331021299999993
  6.3733807100000002  8.4017588300000003 12.7394371900000003
