Cd S 
 1.0000000000000000
    12.3977854500000007    0.0000000000000000    0.0000000000000000
    -6.1988927199999999   10.7367971499999992    0.0000000000000000
     0.0000000000000000    0.0000000000000000   13.4479464199999992
 Cd  S  
  36  36
Cartesian
  0.0382342100000000  2.3756141799999999 13.4201480400000008
  4.1237075100000000  2.3865177200000001  0.0138757300000000
  8.2764602400000005  2.4655262699999998  0.2109802600000000
 -2.0776885699999998  6.0406769000000002  0.0628450800000000
  2.1755451699999999  5.9864380400000003 13.3960173099999995
  6.2302850400000001  5.8666039999999997  0.0028321400000000
 -4.0910167099999999  9.5589321700000003 13.4352972800000003
 -0.0017749900000000  9.5424603099999992  0.0032299300000000
  4.1734373900000001  9.4703217100000003  0.1552011400000000
 -0.0322555000000000  2.2665579600000001  6.5953990100000004
  4.1210943000000002  2.3581685000000001  6.7111197999999996
  8.1825790000000005  2.4066046600000002  6.5372664900000004
 -1.9998522400000001  6.0088589399999996  6.8216038200000000
  2.2841110300000000  5.8465726800000004  6.7381017600000002
  6.0390620300000002  6.0226890099999997  6.7378134300000001
 -4.2042337200000004  9.4272360099999997  6.5763900700000004
 -0.1334849100000000  9.5612423000000000  6.7051388200000002
  4.1051608599999998  9.5486976400000003  6.7643934300000002
  2.1525218599999998  1.3201564200000000  3.2199588100000001
  6.1420567500000001  1.1182826299999999  3.3435904900000000
 10.4648661199999999  1.3728967500000000  3.2597245199999998
 -0.1078017800000000  4.5580427800000001  3.3929776700000001
  3.9785798400000001  4.6796174700000002  3.3992161699999999
  8.2642924299999994  4.7636921699999997  3.3588326600000000
 -2.0521072899999999  8.3970035000000003  3.3000153700000001
  1.9707124300000001  8.2787259800000008  3.5766946300000000
  6.1503823600000000  8.3635781300000005  3.3950928899999999
  2.1852621200000000  1.1133868600000001 10.1413490799999995
  6.1722829900000002  1.1379106699999999 10.0100627000000006
 10.2951912700000001  1.1777767200000000 10.1104786499999992
  0.0493986100000000  4.7328312900000000 10.0976603399999991
  4.1935113800000003  4.6391037800000001 10.0525884699999999
  8.3642884500000001  4.6604919100000002 10.1160216199999997
 -1.9960134500000000  8.2773280499999995  9.9247873900000005
  2.2451714400000000  8.2489102100000000  9.9460107999999998
  6.3884604500000002  8.3335238000000000 10.1258964500000008
 -0.0362179000000000  2.4255139799999998  2.5382638499999999
  4.2618908099999997  2.5180006499999998  2.4453111000000001
  8.1616900999999995  2.5189102700000001  2.4977473400000001
 -2.1576707200000000  6.0072552899999998  2.4933651900000000
  2.0753678400000002  5.9010502200000001  2.4656032500000000
  6.1219237399999997  6.0353650900000000  2.4999033100000001
 -4.1461280900000004  9.5286376500000003  2.5546707400000002
 -0.0551886800000000  9.5289251900000007  2.5549152300000002
  4.1327280799999997  9.5437651599999995  2.5328112400000000
 -0.1073585000000000  2.4542727100000001  9.2431923400000002
  4.2413585899999999  2.5452484900000001  9.1322559299999995
  8.2427042299999993  2.2648769000000000  9.2731183300000009
 -2.0866312200000001  5.9953506499999998  9.3423339700000003
  1.9825574600000000  6.0115304700000003  9.1257250699999997
  6.1666997700000001  5.9944511199999999  9.2590237999999996
 -4.1056209299999997  9.5097593600000003  9.3836295199999995
  0.0166090700000000  9.6352631800000008  9.3739369099999994
  4.0640580499999999  9.5352980100000000  9.2837828200000008
  2.1904665200000002  1.3324006700000000  5.7827140500000001
  6.2110263799999998  1.2668013000000000  5.8636319600000002
 10.1684596799999998  1.2884450800000000  5.7977645899999999
 -0.0272358900000000  4.7278722899999996  5.8575100500000001
  4.2516558800000004  4.7004957100000002  5.7976454400000001
  8.2850724899999992  4.7922082499999998  5.8615065099999999
 -2.1438773100000001  8.1650103000000005  5.8521358499999998
  1.9905033900000000  8.1885334400000005  5.8105595100000000
  6.2448368800000003  8.2258434900000008  5.9654208100000004
  2.0648783200000000  1.2070949399999999 12.6009379999999993
  6.2651045900000000  1.1731097600000000 12.4944687299999995
 10.2458756100000006  1.1127671299999999 12.6003542300000007
 -0.0543539300000000  4.8161534499999998 12.7228312700000004
  4.0077450099999998  4.7918129199999999 12.6885766600000007
  8.2988497100000007  4.8251862100000000 12.5196466500000003
 -2.0553180100000001  8.3473759800000007 12.6193986700000007
  2.0664278000000000  8.3526234899999992 12.6137541700000000
  6.3888315799999997  8.4609261000000000 12.6838125900000005
