Cd S 
 1.0000000000000000
    12.3977854500000007    0.0000000000000000    0.0000000000000000
    -6.1988927199999999   10.7367971499999992    0.0000000000000000
     0.0000000000000000    0.0000000000000000   13.4479464199999992
 Cd  S  
  36  36
Cartesian
 -0.0713685300000000  2.4061878600000002 13.4195157100000007
  4.0121182700000002  2.2358667099999998 13.3732752200000000
  8.2444819500000008  2.3877681300000000  0.0492332000000000
 -2.1965409999999999  5.7651222600000001  0.0036626800000000
  2.0617863100000000  5.9665418900000002 13.4457205200000001
  6.0538253099999997  5.8090611000000001 13.4083052400000007
 -4.1543762800000001  9.4523981300000006  0.0580921700000000
 -0.0673033600000000  9.4780298700000003  0.1648602600000000
  4.1545197900000002  9.5480817800000004 13.4075754200000006
  0.0555785900000000  2.3040147800000002  6.7976156400000001
  4.0838542100000002  2.3711939499999999  6.7406036100000000
  8.2040538900000008  2.4035546600000002  6.7288646300000003
 -2.0994402999999999  6.0216634300000003  6.8727409799999997
  2.0469279399999998  6.0568231099999998  6.6361089000000000
  6.2930290500000003  6.0116683300000000  6.6181432500000001
 -4.0035559200000002  9.7016766000000008  6.6356500599999997
 -0.0743129400000000  9.4979032500000002  6.6801772799999997
  4.1702168100000003  9.4883691900000002  6.5586741499999999
  2.0211411600000000  1.0641316999999999  3.3689534499999998
  6.1973364300000000  1.1525962500000000  3.3288656599999999
 10.2303523399999996  1.2991347400000000  3.2788632299999998
 -0.0051466900000000  4.6016244100000003  3.4891376099999998
  4.3175447800000004  4.6534786300000004  3.4172813299999998
  8.2771206700000004  4.8326005099999998  3.2484562200000000
 -1.9360500700000001  8.2166387299999997  3.3775977899999998
  2.0460586699999999  8.3194883300000004  3.5170593100000000
  6.1947991699999996  8.2862109200000003  3.2436079599999998
  2.1074202700000000  1.1948467300000001 10.0577563800000007
  6.1544388500000000  1.3202579900000000 10.0324694000000001
 10.4021289299999999  1.0984196600000000 10.0566539200000005
  0.2235168900000000  4.7658238600000002 10.1763111899999998
  4.2679466899999996  4.6504852100000003  9.9764693199999996
  8.3410563000000000  4.9713482700000000 10.1551872900000006
 -2.0996461700000002  8.3718174399999992 10.0949860800000000
  2.0621186400000000  8.3304087300000003 10.0926960300000008
  6.1968791999999997  8.3302409100000006 10.0649273600000004
 -0.0118343000000000  2.3975585800000001  2.5367056300000002
  4.3189156000000004  2.3923128000000000  2.4017580500000002
  8.3173772100000001  2.3799135200000001  2.5219922299999999
 -2.0710206100000002  5.9790050600000004  2.5304239599999998
  2.1440102200000002  5.9908372300000003  2.6245961699999998
  6.1927732999999998  5.9059865699999996  2.4277630100000001
 -3.9945147099999998  9.4012318100000005  2.5026782900000000
  0.0001595600000000  9.5563599600000000  2.5250723499999999
  4.1123768700000003  9.6740104500000008  2.4209321300000002
  0.0068230000000000  2.4093091499999999  9.2390392099999996
  4.1923507000000004  2.1883301899999998  9.1739588199999993
  8.1792576300000004  2.3818709400000002  9.2738988500000001
 -2.0881672500000001  5.7902854499999998  9.1033948900000006
  2.0635834300000000  5.8395516699999996  9.3020878899999992
  6.2393304599999997  5.8722549900000001  9.2700009600000008
 -4.1799923300000001  9.5646045300000004  9.2357402999999998
 -0.0003176900000000  9.5369346200000003  9.2604001999999994
  4.2754816399999998  9.6125616199999993  9.3005576500000000
  2.0147046000000000  1.2264583300000000  5.7050661500000004
  6.1252747999999997  1.3456724200000001  5.9986274200000000
 10.3718960599999992  1.2534665199999999  5.9214567899999997
 -0.1099519900000000  4.7893265999999999  5.9282605100000003
  4.1391413300000002  4.7734134900000003  5.8999193600000002
  8.1745112700000000  4.9845414300000002  5.9280353899999998
 -2.1120593300000001  8.5093143700000002  5.9018389200000003
  2.0048919500000002  8.4483505099999991  5.9760734700000002
  6.2185420400000000  8.3204531399999997  5.9446949699999996
  2.0433720000000002  1.1611981400000000 12.7745391599999998
  6.1413526200000002  1.3277458300000000 12.5454469399999997
 10.3446573199999996  1.2223367900000000 12.5958991900000008
  0.0308432700000000  4.7300958800000004 12.3890404600000004
  4.1464098399999996  4.7286293400000003 12.5858640699999995
  8.3138717399999997  4.8398168200000002 12.5031781599999992
 -2.1203794800000000  8.4057682699999994 12.8148386199999997
  2.1054987999999999  8.3671209500000003 12.6726234899999994
  6.1516833300000000  8.3554463999999999 12.5629942200000002
