Cd S 
 1.0000000000000000
    12.3977854500000007    0.0000000000000000    0.0000000000000000
    -6.1988927199999999   10.7367971499999992    0.0000000000000000
     0.0000000000000000    0.0000000000000000   13.4479464199999992
 Cd  S  
  36  36
Cartesian
 -0.0592187000000000  2.2127257999999999  0.0183103200000000
  4.1625647700000004  2.2656909600000001 13.4368470200000001
  8.2215408399999994  2.3036766700000002  0.0291240800000000
 -2.1291608900000001  5.8376596400000000 13.3558907900000001
  1.8766222900000000  5.9628222400000004  0.0249335700000000
  6.3419408600000002  5.9093141200000003  0.0575561300000000
 -4.1109307199999998  9.5367440400000003 13.4233854899999994
  0.0086956900000000  9.6032870599999995 13.3023932400000007
  4.1456985199999998  9.5582364299999991  0.0035247100000000
 -0.1377397100000000  2.3118182799999998  6.7897219700000004
  3.9972349700000001  2.3951915499999998  6.7790366300000002
  8.3690155300000004  2.3558078000000000  6.8321628800000003
 -1.9903143800000000  5.9700241600000004  6.6952847100000001
  1.9383556300000000  5.8290901699999997  6.6848098299999998
  6.2081994399999996  5.9500960200000002  6.7878286299999999
 -4.0671869300000001  9.4563723500000005  6.6119311099999996
  0.0735278600000000  9.4262434000000006  6.7961078600000002
  3.9532281100000000  9.4667432399999996  6.8003202900000002
  1.9558681200000001  1.1412224399999999  3.4122932200000000
  6.1966408499999996  1.1923010300000001  3.3581832600000001
 10.2658059200000000  0.9556300300000000  3.3525363300000000
 -0.0082492400000000  4.7186445499999996  3.2708692400000001
  4.1392729900000003  4.7603208199999996  3.3635586700000002
  8.2997740899999997  4.7668740200000004  3.5891221500000001
 -1.9554569500000001  8.3838624100000008  3.3286101499999998
  2.0205451999999999  8.3359135900000005  3.4496978800000000
  6.3913031399999998  8.4271709999999995  3.3505120100000001
  2.1420958799999998  1.2466425400000001 10.0096694799999995
  6.2506803800000004  1.0197837800000000 10.2484946499999996
 10.2628379499999998  1.3402821199999999 10.0681492200000005
 -0.1633484500000000  4.8078386599999998 10.1138516599999999
  4.1249392299999998  4.6098895999999998 10.2515139899999994
  8.3690925899999993  4.7124711000000001 10.1986510500000005
 -2.0472562900000000  8.2877082699999995 10.0733818199999998
  2.0691394999999999  8.3519411600000009 10.0791353899999994
  6.1965538200000001  8.2832900800000004 10.0011972700000005
 -0.1200464500000000  2.4178284799999998  2.5767916700000000
  4.1411963800000002  2.3756242699999999  2.5435853300000000
  8.3349448699999993  2.5494900600000001  2.4540103100000001
 -2.0830020199999999  5.7975717600000003  2.4973923099999999
  2.1064417099999999  5.9080062699999996  2.6079330800000000
  6.1480156299999997  5.9610372500000004  2.4954625300000002
 -4.2413382500000001  9.5518340800000008  2.5919648600000000
 -0.0811214300000000  9.4435552999999999  2.6174823400000000
  4.1363885900000001  9.5538095399999996  2.5221452700000002
  0.1249956500000000  2.1801046199999998  9.2214355799999996
  4.0216821700000001  2.5330659799999999  9.1356531499999996
  8.1983920000000001  2.2820691900000001  9.0716955200000005
 -2.1404281300000001  6.0720248100000003  9.3756640299999994
  2.0653351199999999  5.9684276000000001  9.2591254700000007
  6.2689395299999999  5.9779706800000003  9.2705482900000007
 -4.1364917300000004  9.5366564300000007  9.2543616699999998
 -0.0025836900000000  9.5617725900000003  9.2653666599999998
  4.0846546100000003  9.3748737299999991  9.2978566300000001
  2.0429257500000002  1.1950582400000000  5.8781166100000002
  6.2983782599999998  1.0386848399999999  5.8083539100000001
 10.3283041400000002  1.1222054200000000  5.9347787299999997
  0.0008007800000000  4.7733959800000001  5.8879918399999998
  4.1373261699999997  4.7144613800000004  5.8371239099999999
  8.1336700499999992  4.6651130199999997  5.9612796499999998
 -2.0662593700000000  8.3496402700000001  5.8961867500000000
  2.0299579099999998  8.3567113099999997  5.7186207400000004
  6.2138709900000002  8.2495963999999997  5.9228126100000003
  2.2542309399999998  1.0365610999999999 12.5901102599999994
  6.1459944699999998  1.3435295700000001 12.7420682799999998
 10.4425339299999997  1.2874860699999999 12.4291090200000003
  0.0600177400000000  4.6230910200000004 12.7919689099999996
  4.1446553000000002  4.6541773800000001 12.5900383100000006
  8.2912020099999992  4.7123362499999999 12.6426743800000008
 -2.0629605000000000  8.3578853800000008 12.6153531300000008
  2.1443921399999999  8.5379333000000006 12.6960830300000005
  6.2013512700000000  8.3446474399999992 12.6193317000000000
