Cd S 
 1.0000000000000000
    12.3977854500000007    0.0000000000000000    0.0000000000000000
    -6.1988927199999999   10.7367971499999992    0.0000000000000000
     0.0000000000000000    0.0000000000000000   13.4479464199999992
 Cd  S  
  36  36
Cartesian
 -0.0933478200000000  2.3575780800000001 13.3029221500000006
  4.1529225800000003  2.3541075199999999  0.0472607900000000
  8.3154797299999998  2.3312659500000001 13.3439652800000008
 -2.0740588799999999  5.9651716600000002  0.0001982200000000
  2.1670334100000002  5.8193199000000000 13.4449430900000007
  6.3511101300000004  5.9988023200000002  0.1531351300000000
 -4.1179057700000001  9.5110703200000000  0.0834578200000000
  0.0794300100000000  9.4554744300000007 13.4431605600000008
  4.1202996100000000  9.5271977400000001  0.0214435600000000
 -0.0407205900000000  2.1643348400000000  6.7700141399999998
  4.1119607900000004  2.5101896300000002  6.7117790199999998
  8.3733284099999992  2.4419015599999998  6.6286578000000000
 -2.0743763799999999  5.8947760699999998  6.7244491300000000
  2.1003123700000002  5.9304549800000004  6.7070391499999999
  6.3251458899999999  5.9456426100000002  6.8600014700000003
 -4.1988806099999998  9.4188007599999999  6.6586445699999999
  0.0009886000000000  9.5435582599999993  6.7281781100000000
  4.0569923599999997  9.6078833800000005  6.8202014699999998
  2.1248274399999998  1.2559211699999999  3.2874071200000001
  6.2368982600000002  1.2618936199999999  3.3182505199999999
 10.2144176499999997  1.1014341200000000  3.3403075699999998
 -0.0530725600000000  4.7255304799999998  3.2256276599999998
  4.2813438599999998  4.6324070199999996  3.2788696900000001
  8.2654263399999994  4.7723642899999996  3.3646047900000000
 -2.0808479599999998  8.3309397700000005  3.3437766099999999
  2.2105731300000002  8.3238823699999998  3.5015604200000001
  6.1955344800000001  8.3516179899999994  3.3756501200000000
  2.1171600300000000  1.3334429900000000  9.8915638300000008
  6.2404101799999996  1.0711142600000001 10.2567982200000003
 10.1558790900000009  1.2050198400000001 10.1360246400000005
  0.0303564100000000  4.7244034399999997 10.1338392099999997
  4.0717542199999999  4.6684540999999999 10.0652475599999995
  8.4282424200000001  4.6432142499999998 10.0560378700000008
 -1.9946450499999999  8.1947097899999992  9.9402639599999993
  2.0754958499999998  8.3487570600000005 10.0183838800000000
  6.1443662100000003  8.3717103999999996 10.1270328000000003
 -0.1410711800000000  2.4084298099999999  2.4439223299999999
  4.0520758900000002  2.2949930799999998  2.5568538799999998
  8.2300011499999997  2.3077241200000000  2.4332495100000000
 -2.0030759100000002  5.8774334599999998  2.5574322800000000
  1.8699352300000001  6.0044622199999997  2.6315698699999999
  6.1774074900000002  6.0089030699999997  2.4279011200000000
 -4.1212061300000000  9.5504637399999996  2.5200929799999998
  0.1550661700000000  9.4312228000000005  2.4788802699999999
  3.9562789500000002  9.6857711099999992  2.6075504899999999
  0.1169103100000000  2.2532696699999999  9.2002039700000005
  4.2514293700000003  2.4132761800000000  9.2327424800000006
  8.0187971900000008  2.3502611700000000  9.2501064700000004
 -2.0026954899999998  5.8933315400000001  9.2211218400000003
  2.0963433999999999  6.0247999700000001  9.1897320499999999
  6.1847916700000001  5.9048382699999999  9.0541325100000005
 -4.2026044699999998  9.6079797899999999  9.3111566499999991
 -0.0018710100000000  9.4301028500000008  9.3079089699999997
  4.1094317699999996  9.3743312000000003  9.1587097899999996
  2.1295582500000001  1.1707335999999999  5.8735128400000001
  6.1434318499999998  1.1818759200000000  5.9051793899999998
 10.2298125399999993  1.2839247800000000  5.6989384599999999
  0.0057160600000000  4.7905554300000004  5.8978751400000000
  4.1789140400000004  4.7971192599999997  5.9132431800000003
  8.2146107900000001  4.7517801300000002  5.8908452300000000
 -2.0811432800000000  8.4343495199999996  5.8776603200000004
  1.9416741500000001  8.3793629400000000  5.9078294400000004
  6.4021865299999998  8.2975102199999995  5.7826610699999996
  2.0565392600000001  1.2497819800000001 12.6080265499999999
  6.2381252099999998  1.3020083400000000 12.5950203700000003
 10.2465275499999997  1.2260509700000000 12.7245079600000004
  0.0406067200000000  4.6251459400000003 12.4918524299999998
  4.1653443599999997  4.8183730699999998 12.5468293800000001
  8.2344384999999996  4.7781042800000000 12.6228252100000002
 -2.1978862200000000  8.4053061600000003 12.5388637599999999
  2.0933278899999999  8.4190883400000001 12.5538941299999998
  6.2220671699999999  8.3229759699999999 12.5984969299999996
