Ga N 
 1.0000000000000000
     4.7834999999999983   -8.2852650380057256    0.0000000000000000
     4.7834999999999983    8.2852650380057256    0.0000000000000000
     0.0000000000000000    0.0000000000000000   10.3699999999999992
 Ga  N  
  36  36
Direct
  0.2222222222222220  0.1111111111111110  0.2495418550000000
  0.2222222222222221  0.7777777777777776  0.7495418549999999
  0.1111111111111112  0.8888888888888886  0.9995418549999999
  0.5555555555555556  0.7777777777777776  0.2495418550000000
  0.4444444444444445  0.8888888888888886  0.9995418549999999
  0.5555555555555555  0.1111111111111110  0.2495418550000000
  0.4444444444444444  0.2222222222222220  0.4995418550000000
  0.8888888888888888  0.4444444444444443  0.7495418549999999
  0.7777777777777778  0.5555555555555554  0.4995418550000000
  0.5555555555555555  0.1111111111111110  0.7495418549999999
  0.4444444444444444  0.2222222222222220  0.9995418549999999
  0.5555555555555554  0.4444444444444442  0.2495418550000000
  0.4444444444444444  0.5555555555555552  0.4995418550000000
  0.7777777777777777  0.2222222222222220  0.9995418549999999
  0.8888888888888887  0.1111111111111109  0.7495418549999999
  0.8888888888888888  0.4444444444444443  0.2495418550000000
  0.5555555555555554  0.4444444444444442  0.7495418549999999
  0.7777777777777778  0.5555555555555554  0.9995418549999999
  0.2222222222222221  0.7777777777777776  0.2495418550000000
  0.1111111111111110  0.2222222222222220  0.4995418550000000
  0.7777777777777778  0.8888888888888886  0.9995418549999999
  0.8888888888888888  0.7777777777777776  0.7495418549999999
  0.2222222222222220  0.1111111111111110  0.7495418549999999
  0.1111111111111110  0.2222222222222220  0.9995418549999999
  0.5555555555555556  0.7777777777777776  0.7495418549999999
  0.1111111111111112  0.8888888888888886  0.4995418550000000
  0.8888888888888887  0.1111111111111109  0.2495418550000000
  0.1111111111111111  0.5555555555555554  0.4995418550000000
  0.7777777777777778  0.8888888888888886  0.4995418550000000
  0.8888888888888888  0.7777777777777776  0.2495418550000000
  0.2222222222222221  0.4444444444444443  0.7495418549999999
  0.1111111111111111  0.5555555555555554  0.9995418549999999
  0.7777777777777777  0.2222222222222220  0.4995418550000000
  0.4444444444444445  0.8888888888888886  0.4995418550000000
  0.2222222222222221  0.4444444444444443  0.2495418550000000
  0.4444444444444444  0.5555555555555552  0.9995418549999999
  0.8888888888888887  0.1111111111111109  0.4379581450000000
  0.7777777777777777  0.2222222222222220  0.1879581450000000
  0.8888888888888888  0.4444444444444443  0.4379581450000000
  0.7777777777777777  0.2222222222222220  0.6879581449999999
  0.7777777777777778  0.5555555555555554  0.1879581450000000
  0.8888888888888888  0.4444444444444443  0.9379581449999997
  0.7777777777777778  0.5555555555555554  0.6879581449999999
  0.8888888888888888  0.7777777777777776  0.4379581450000000
  0.7777777777777778  0.8888888888888886  0.1879581450000000
  0.8888888888888887  0.1111111111111109  0.9379581449999997
  0.4444444444444445  0.8888888888888886  0.6879581449999999
  0.4444444444444444  0.5555555555555552  0.1879581450000000
  0.4444444444444445  0.8888888888888886  0.1879581450000000
  0.2222222222222220  0.1111111111111110  0.4379581450000000
  0.1111111111111110  0.2222222222222220  0.1879581450000000
  0.2222222222222220  0.1111111111111110  0.9379581449999997
  0.1111111111111110  0.2222222222222220  0.6879581449999999
  0.2222222222222221  0.4444444444444443  0.4379581450000000
  0.1111111111111111  0.5555555555555554  0.1879581450000000
  0.2222222222222221  0.4444444444444443  0.9379581449999997
  0.1111111111111111  0.5555555555555554  0.6879581449999999
  0.2222222222222221  0.7777777777777776  0.4379581450000000
  0.1111111111111112  0.8888888888888886  0.1879581450000000
  0.2222222222222221  0.7777777777777776  0.9379581449999997
  0.1111111111111112  0.8888888888888886  0.6879581449999999
  0.5555555555555555  0.1111111111111110  0.4379581450000000
  0.4444444444444444  0.2222222222222220  0.1879581450000000
  0.5555555555555555  0.1111111111111110  0.9379581449999997
  0.4444444444444444  0.2222222222222220  0.6879581449999999
  0.5555555555555554  0.4444444444444442  0.4379581450000000
  0.8888888888888888  0.7777777777777776  0.9379581449999997
  0.5555555555555554  0.4444444444444442  0.9379581449999997
  0.4444444444444444  0.5555555555555552  0.6879581449999999
  0.5555555555555556  0.7777777777777776  0.4379581450000000
  0.5555555555555556  0.7777777777777776  0.9379581449999997
  0.7777777777777778  0.8888888888888886  0.6879581449999999
