Cd S 
 1.0000000000000000
    12.3977854500000007    0.0000000000000000    0.0000000000000000
    -6.1988927199999999   10.7367971499999992    0.0000000000000000
     0.0000000000000000    0.0000000000000000   13.4479464199999992
 Cd  S  
  36  36
Cartesian
  0.0333575400000000  2.3594031200000001  0.0584447800000000
  4.0812488800000004  2.3282496600000000 13.4385034099999991
  8.1630217999999992  2.3350689199999999 13.4109446600000002
 -2.0307118200000001  5.9937868400000003 13.3927676099999999
  2.0622007099999999  5.9630544700000003  0.0038611700000000
  6.3631087700000002  5.9338720699999996 13.4337369199999994
 -4.0193190200000002  9.4648852399999992 13.4332607199999998
  0.1030998000000000  9.5780803900000002  0.0522799700000000
  4.0050691399999998  9.6976076800000008 13.3247641699999999
  0.0823736800000000  2.3111796600000001  6.7762051699999999
  4.2642016900000002  2.4468306100000001  6.8912231700000000
  8.2214361399999998  2.5137366299999999  6.6507159299999996
 -2.1501804099999999  5.8101202900000004  6.8879644600000001
  2.0846374200000000  5.9798660400000001  6.6551065500000002
  6.1950743299999997  5.8517258099999996  6.7431210699999999
 -4.0270710400000000  9.5519749399999991  6.7441530600000004
 -0.0745979700000000  9.7198330599999991  6.7779092900000002
  4.1236685199999998  9.4681308600000005  6.7004340600000001
  2.1287313800000001  1.2100267300000001  3.4297894000000002
  6.1729547000000000  1.2349043200000001  3.3446160300000001
 10.3784931100000009  1.2063385300000000  3.3633019499999999
  0.0232502500000000  4.6395833900000003  3.1949558499999999
  4.0468602100000002  4.8171089199999999  3.3058846000000002
  8.1428480000000008  4.8372253799999996  3.4097545199999999
 -2.1414831799999998  8.1508624300000001  3.3540421000000000
  2.0663472100000000  8.3509612200000003  3.3638121600000002
  6.0725858300000004  8.4926392699999997  3.2189565299999998
  2.0874636099999999  1.2233075099999999 10.0622303800000008
  6.1801393400000002  1.3421148899999999 10.1149044999999997
 10.3211669900000000  1.2372396800000001  9.9957348499999998
 -0.1349146200000000  4.7774488000000002 10.1410524199999994
  4.1477579699999998  4.7761974299999999 10.0819063300000007
  8.2878197100000008  4.7469009000000000 10.1695686599999995
 -2.0609383000000001  8.5721544800000000 10.1850616299999999
  2.1236908099999998  8.3757481899999995 10.0813346599999996
  6.1822840399999999  8.4184842900000003 10.1076665499999994
  0.0000737700000000  2.3905573300000000  2.5349286200000001
  3.9279333400000001  2.3901036000000002  2.5189090200000002
  8.1363658200000000  2.3943712599999998  2.6931675099999999
 -1.9943354700000000  5.8712780499999999  2.6113477899999999
  2.0135110699999998  5.9162535299999996  2.5277588500000001
  6.3988530800000003  6.0820295700000004  2.5519861300000000
 -4.1466639299999999  9.4892263099999994  2.3520382999999998
  0.0301653700000000  9.3792522999999992  2.5854166500000000
  4.1313734400000000  9.5390097199999992  2.5254194399999998
 -0.0249412400000000  2.3922801599999999  9.2289308000000005
  4.1142367200000001  2.3775054700000000  9.2518828099999997
  8.2455817600000003  2.4010688700000000  9.2291356100000002
 -2.1035153300000000  5.9869769200000000  9.2586900300000003
  2.0823191500000000  5.8848389499999998  9.2174091300000001
  6.1632950299999996  5.8453602800000004  9.2738779999999998
 -4.0684301200000004  9.6095307200000004  9.2866543600000000
  0.0185687900000000  9.5046397299999992  9.2621282600000008
  4.2640982400000000  9.6643183500000003  9.1249469699999999
  2.0626300999999998  1.2143057700000000  5.8658426700000001
  6.3035517299999997  1.3404661499999999  6.0108360100000002
 10.2307853299999998  1.3929602800000001  5.9358268599999997
  0.0363935200000000  5.0021532200000003  5.9705212200000002
  4.1907298800000001  4.8675371900000002  6.0772864799999997
  8.2019618199999993  4.7661715200000003  6.0187376199999996
 -2.0524030999999998  8.2986937399999992  5.9255808700000001
  2.1195722699999999  8.2958296899999997  6.0256283499999999
  6.2194348100000001  8.3159316600000004  5.8521787500000002
  1.9368401300000000  1.1160397099999999 12.4660888599999993
  6.1807886099999996  1.1561638700000001 12.6810858799999995
 10.3444083100000004  1.2055112600000000 12.6130018899999996
 -0.1752192000000000  4.6618588100000000 12.7284434999999991
  4.0957066199999996  4.7354620199999999 12.4908176100000006
  8.3498652999999994  4.8528471000000000 12.5104945099999991
 -2.1360454500000001  8.3961453099999996 12.6212780200000001
  2.0319196100000001  8.1593399899999994 12.5776643200000002
  6.1366428900000001  8.1327808000000008 12.6781686199999992
