Cd S 
 1.0000000000000000
    12.3977854500000007    0.0000000000000000    0.0000000000000000
    -6.1988927199999999   10.7367971499999992    0.0000000000000000
     0.0000000000000000    0.0000000000000000   13.4479464199999992
 Cd  S  
  36  36
Cartesian
  0.0865345600000000  2.3337407799999998  0.0628500500000000
  3.9734296100000002  2.4614648600000000  0.1619902000000000
  8.2907644299999994  2.3927524700000000  0.0526574500000000
 -2.1270217800000002  5.9533417499999999 13.4275963199999993
  2.0510635300000000  5.9480156600000003 13.3925389999999993
  6.2166619799999996  5.7437039600000004 13.3424506399999991
 -4.0950528100000003  9.5830845999999994  0.0251659500000000
  0.0187674600000000  9.5647553799999994  0.0568382800000000
  4.2312066000000002  9.3735071500000000 13.3293965900000000
 -0.0903662200000000  2.5477968700000000  6.7768614300000003
  4.2947446899999999  2.4295391000000000  6.7067505599999997
  8.2565195800000009  2.3205194900000001  6.7025365099999998
 -2.0865037700000002  5.9802371100000000  6.7046224199999997
  2.0011716800000001  5.9385968000000000  6.7732105799999998
  6.2373250599999999  6.0206372100000003  6.6746075500000002
 -4.1803589399999996  9.4829567699999995  6.6047603900000000
 -0.0018363600000000  9.4688196300000005  6.6497798100000001
  4.1347194099999998  9.5476398499999995  6.7246741200000004
  2.1164955100000000  1.1930714000000000  3.3264506800000002
  6.2080579699999996  1.2092492800000001  3.3628288500000001
 10.4911806700000003  1.1026700300000001  3.2896483500000002
 -0.1290229500000000  4.6997685100000002  3.2463393800000002
  4.0757145100000001  4.7318472600000003  3.3987069000000001
  8.2426977200000007  4.7398528300000002  3.2909659800000002
 -2.1207273600000001  8.3548767099999992  3.3216976300000001
  2.1032777999999999  8.3273107399999997  3.3749250100000001
  6.1863645199999997  8.3111639900000007  3.3849758699999999
  2.0895959099999999  0.9575958300000000 10.0973786000000008
  6.1656717399999996  1.1474960500000000 10.1279804799999997
 10.4340259500000005  1.1798930500000000 10.0702838099999994
  0.2034084800000000  4.6765462099999997 10.1491533300000008
  4.0446018300000004  4.8372395600000004 10.1971033299999991
  8.2707395899999998  4.7614555899999997 10.0902626200000007
 -2.1106738699999998  8.2457863400000004 10.1572145700000007
  2.1914390099999999  8.3264409500000003 10.1199025700000007
  6.3863321199999996  8.2692069499999992 10.0781339200000009
  0.0570996100000000  2.4850875299999999  2.5168332000000002
  4.2692204399999998  2.3646004800000000  2.4919207399999999
  8.2384977199999998  2.5051536400000001  2.4792201000000000
 -2.2380429600000000  6.0537095499999998  2.5933305000000000
  2.0750662599999998  5.9558193800000003  2.5224383000000001
  6.1464401799999999  5.7943483599999999  2.6584123700000002
 -4.0333279600000003  9.7156769599999997  2.5782768699999998
 -0.0878732100000000  9.4500103699999993  2.5937113400000000
  3.9344904000000001  9.4566623500000002  2.4826505399999999
  0.1927349200000000  2.3610761299999998  9.2222010399999998
  4.1504689399999997  2.3759605499999998  9.3186112500000000
  8.1989348999999994  2.4547145300000000  9.1698670100000008
 -2.0572252199999999  5.9715105599999996  9.2795986199999998
  2.1411478200000000  5.9217594599999996  9.3522362300000008
  6.3929460300000001  5.9584786699999999  9.1227125900000008
 -4.1466263000000003  9.5491207800000009  9.2393904700000000
 -0.0389540200000000  9.7069238900000006  9.2365483899999994
  4.1800424899999999  9.6948982499999996  9.3185254499999992
  2.0245188199999999  1.0377449400000001  5.7760791100000004
  6.1759970500000003  1.2424330699999999  5.9355745799999999
 10.4627217399999992  1.0589711600000000  5.8426717200000002
  0.0121467300000000  4.7700579100000002  5.8687743200000000
  4.1711307099999999  4.7060819599999997  5.9226995100000002
  8.2658513899999999  4.7688835200000002  5.9965542899999997
 -2.1234484899999999  8.2907835100000007  5.8705764800000004
  2.1326895000000001  8.2171547399999998  5.7821135999999997
  6.2014699799999997  8.2885187899999995  5.9143424199999997
  1.8266378900000000  1.2091158200000001 12.6564356599999996
  6.2069638100000004  1.0699871200000000 12.5848724099999991
 10.3266825799999999  1.2076287800000001 12.8668301300000003
  0.0192706200000000  4.9585086699999996 12.7790424700000003
  4.1834272099999996  4.7764459900000000 12.5762408499999996
  8.3342623699999994  4.7164428599999999 12.5754436599999995
 -1.9322236800000001  8.1507673000000000 12.6122361600000001
  2.0444640700000001  8.2471279000000006 12.4491285699999992
  6.1140099299999999  8.3495246299999994 12.5857266299999999
