Cd S 
 1.0000000000000000
    12.3977854500000007    0.0000000000000000    0.0000000000000000
    -6.1988927199999999   10.7367971499999992    0.0000000000000000
     0.0000000000000000    0.0000000000000000   13.4479464199999992
 Cd  S  
  36  36
Cartesian
  0.0403726500000000  2.3923353500000002  0.0285300900000000
  4.0922432300000002  2.3520159899999999  0.0739978600000000
  8.2975413099999997  2.3311687800000001 13.4406051899999994
 -1.9289201100000000  6.0831357800000001 13.2812657099999996
  2.1450817000000000  5.9943276499999998  0.0240851400000000
  6.1954755900000000  5.9209007400000004  0.0530073700000000
 -4.2754571400000003  9.6022891799999996  0.0065069200000000
 -0.0031709200000000  9.5063467799999994  0.0255949400000000
  4.1428409500000001  9.5256103099999994  0.0170681300000000
  0.0097258800000000  2.5613682899999999  6.6969546700000002
  4.1637328299999998  2.4267675000000000  6.8282064900000004
  8.1664585899999995  2.3735841799999999  6.7356947099999998
 -2.0069604499999998  5.9523733999999999  6.6979002000000003
  2.2136852199999999  6.1084494999999999  6.7347296800000001
  6.3058254199999997  5.8833165799999998  6.7807618700000001
 -4.1846580500000004  9.5340427699999992  6.7467364099999996
  0.0682656800000000  9.7437063300000002  6.8503038900000002
  4.1658625200000001  9.4596384899999997  6.6060474999999999
  2.0803242900000001  1.2341945100000000  3.3988490400000000
  6.2043928800000003  1.2056914299999999  3.4039819900000001
 10.2713634099999993  1.0880786200000001  3.4650357999999999
 -0.0151284000000000  4.8045427900000002  3.3246704399999998
  4.1179453300000004  4.7980834200000002  3.4274945099999998
  8.2737548600000004  4.7787993799999997  3.3538555699999999
 -2.0427438000000002  8.3542168300000004  3.4899413899999998
  1.9489098700000000  8.2402479799999995  3.1849906500000000
  6.1463848199999997  8.4250815100000001  3.3176278799999999
  2.0675605799999999  1.1935225599999999 10.0884847999999998
  6.2909813699999999  1.1198155200000000 10.1085874600000007
 10.3966361500000009  1.2738946799999999 10.0117951999999999
  0.0867122800000000  4.8195312499999998 10.0764496999999995
  4.1226809700000002  4.7847855800000003 10.0645781200000002
  8.2323011899999994  4.8381660399999999  9.9745299999999997
 -2.0254826100000001  8.4105109299999992 10.1057385199999992
  2.0833761300000000  8.4171976999999991  9.9681001299999998
  6.1689523199999998  8.3860422000000003 10.0545610100000005
 -0.0020545600000000  2.3776688799999999  2.5354653300000001
  4.1187814999999999  2.4191369699999998  2.5274975500000001
  8.2720191700000001  2.3978706000000001  2.5416146700000000
 -2.2354484100000001  5.9752412799999997  2.5481683899999998
  2.1621631200000002  6.0462153699999996  2.5627446200000001
  6.2068538999999996  5.9487062499999999  2.5173428800000002
 -4.1915075799999997  9.5258798000000002  2.5164243800000001
 -0.1818094300000000  9.7006635899999996  2.5910420599999999
  4.2609552099999997  9.6588008100000007  2.5163186799999999
  0.0208479900000000  2.3542506400000001  9.1762051600000003
  4.0925956399999999  2.3455134599999998  9.2550436200000004
  8.3588497200000003  2.3126316999999998  9.2655574900000008
 -2.0217467899999999  6.0273632700000004  9.1384496500000001
  2.0787653300000000  5.9627273199999999  9.2660604400000004
  6.2246174500000002  6.1091298900000002  9.3172829999999998
 -4.0127515999999996  9.4731778000000002  9.1878352200000002
  0.0091384700000000  9.5400770700000006  9.3549785300000003
  4.2289388600000004  9.4079631399999997  9.2891598500000008
  2.0160377999999999  1.3021708900000000  5.8864929300000002
  6.1984575599999996  1.1570580300000000  5.9409462199999998
 10.3253529799999999  1.1839168799999999  5.8848356099999997
  0.1849368400000000  4.6696292399999999  5.7662383000000004
  4.1369218099999996  4.8189605899999997  5.9547054900000003
  8.2523234900000002  4.7828717400000000  5.9117873100000002
 -1.8498123200000001  8.4112030200000003  5.8746045499999999
  2.0718148200000002  8.3349813200000007  5.8880090500000000
  6.1266895100000003  8.5078994800000007  5.9478206800000004
  2.0186042000000000  1.2661655800000000 12.5181297199999992
  6.1789202000000003  1.1315438600000001 12.6195974300000007
 10.4741420800000000  1.2424535800000001 12.6304388999999997
  0.1146200700000000  4.7256422499999999 12.5262538899999996
  4.1737803099999997  4.9719449200000003 12.7083470199999997
  8.2406665300000004  4.8360190000000003 12.6373615000000008
 -2.2692120400000002  8.4403615900000002 12.5990184400000000
  2.1574078900000000  8.3796216999999995 12.7386105500000006
  6.2309554499999997  8.2042137900000007 12.4917314000000008
