Cd S 
 1.0000000000000000
    12.3977854500000007    0.0000000000000000    0.0000000000000000
    -6.1988927199999999   10.7367971499999992    0.0000000000000000
     0.0000000000000000    0.0000000000000000   13.4479464199999992
 Cd  S  
  36  36
Cartesian
 -0.0627779200000000  2.4017077100000002 13.4348376300000005
  4.0868130000000003  2.3386038000000000  0.2125535300000000
  8.0425745299999996  2.3560854500000001 13.3486880699999997
 -1.8904270900000000  5.9470891799999999 13.4459285600000005
  1.9784506900000001  5.8075444200000002 13.4431563999999995
  6.0081595600000002  5.8996060200000002 13.3258183599999995
 -4.3085708199999999  9.4067909000000007  0.0518676500000000
 -0.2146175000000000  9.5545912899999994 13.3709032699999995
  3.9692971199999998  9.5703851100000001 13.2952741700000008
 -0.0058941500000000  2.3949559800000002  6.7163962300000000
  4.1029803300000003  2.4184522799999999  6.6488849900000000
  8.0501706500000001  2.4836014500000001  6.6876750500000002
 -2.0632940600000000  5.9981395400000004  6.7791801200000004
  2.0903875699999999  5.8965958499999997  6.7404410300000004
  6.1312008799999997  5.9195195500000004  6.8933816999999999
 -4.2797678499999998  9.6297659400000004  6.6661006399999998
  0.1014015500000000  9.5644547499999994  6.7833444099999998
  4.1497920800000001  9.4322984099999996  6.7153998799999997
  2.1867881599999999  1.3013974100000001  3.2885536900000001
  6.2628417399999998  1.1645368500000000  3.5712012799999999
 10.2987780099999995  1.1462881599999999  3.4042668100000002
  0.0915746900000000  4.8986141999999999  3.3291646099999999
  4.1853812200000000  4.7579200699999999  3.2824863799999999
  8.2635827800000001  4.7715994000000004  3.3592807400000000
 -1.9872838600000000  8.4229571300000003  3.4484804300000000
  2.0743718000000002  8.3193121399999992  3.3824414699999998
  6.1130470499999996  8.3501376000000000  3.4779260600000002
  2.0551266500000001  1.1936433500000001 10.1074403499999992
  6.2041157299999998  1.1966062700000000 10.0814891800000002
 10.3740235799999994  1.0204500000000001 10.0984360100000004
 -0.1136375400000000  4.8327985000000000  9.9170865599999996
  4.1527532899999997  4.7602863500000003 10.1132323799999995
  8.2123336899999995  4.7374647599999999  9.9218191600000001
 -2.1957771699999999  8.4335101100000003 10.1187040899999996
  2.2057883299999999  8.4158279999999994 10.0601755300000004
  6.2488535699999996  8.3234597699999995 10.1400974799999997
  0.0661497500000000  2.3688507500000000  2.5966136799999999
  4.0951808900000000  2.3787276400000001  2.5258735799999998
  8.3337023600000002  2.2510848399999999  2.4450305800000001
 -1.8859270100000001  6.0248537600000001  2.6193672000000001
  2.0660915100000001  5.9628981500000000  2.5280560500000000
  6.1623635800000001  6.0708544900000003  2.5137616899999999
 -3.9895925399999999  9.5605972300000008  2.6507439499999998
 -0.0877589600000000  9.6276398400000005  2.5599993599999999
  4.3321038100000004  9.4384711100000001  2.4653574200000001
 -0.0891771500000000  2.3185228699999998  9.1512651399999996
  3.9171247000000000  2.4155244699999998  9.1675792499999993
  8.1706928699999999  2.2375288800000002  9.2727056099999992
 -1.9768192000000000  6.1375221700000004  9.1823654000000001
  2.0643765799999998  5.9631621600000004  9.2547136000000005
  6.1117835300000003  6.0360684500000001  9.2355775799999993
 -4.2256519499999996  9.5220770399999992  9.2922756000000000
 -0.0016673100000000  9.5213527399999993  9.2774371400000000
  4.0285819700000003  9.5503208300000004  9.3791132899999994
  2.0277431099999998  1.2100507800000000  5.9970186500000002
  6.2625055800000000  1.2312030199999999  5.8301093200000000
 10.2786004299999991  1.0884225199999999  5.6816812499999996
  0.0812870700000000  4.7852992299999997  5.7592902900000000
  4.2467984899999998  4.7515357600000003  5.7879688399999996
  8.2078474200000002  4.9386527899999999  5.8588567300000003
 -2.0364453600000001  8.3211006800000007  5.8828833700000001
  2.0549422399999999  8.2392212199999992  5.8701817800000002
  6.2022214099999999  8.3595427099999995  5.8880460399999999
  2.0826057300000000  1.0943623300000000 12.6919647300000005
  6.2578636000000003  1.1981912400000001 12.6830843800000004
 10.4183159100000005  1.2034061000000000 12.6198388200000000
 -0.1192220000000000  4.9070520399999999 12.7040841600000007
  4.0882809000000000  4.8393245399999998 12.6406889200000006
  8.2525134799999993  4.7188738800000003 12.5862336199999998
 -1.9481284900000000  8.4553349099999995 12.5775705799999997
  2.0701395699999998  8.2301793300000003 12.4579466599999993
  6.1576548400000002  8.2800994299999999 12.7757087299999998
