Cd S 
 1.0000000000000000
    12.3977854500000007    0.0000000000000000    0.0000000000000000
    -6.1988927199999999   10.7367971499999992    0.0000000000000000
     0.0000000000000000    0.0000000000000000   13.4479464199999992
 Cd  S  
  36  36
Cartesian
 -0.0298978800000000  2.3819998899999999  0.0307069100000000
  4.0987934199999998  2.3099366600000000 13.3451987299999999
  8.2649712700000002  2.3849351200000002  0.0012123300000000
 -2.1672079000000002  5.9385106900000002 13.4397501699999999
  2.0089291600000001  5.8219048899999999  0.0292648800000000
  6.3231632900000001  5.8821268299999998  0.0247669500000000
 -4.1679024499999997  9.5687224099999995  0.0082523300000000
 -0.1112985100000000  9.4663896800000007 13.3644508099999992
  4.0957211200000003  9.5059002300000000 13.4053766799999998
  0.1116806200000000  2.3036910599999998  6.6330543300000002
  4.1305065799999996  2.4195084599999999  6.6695426500000004
  8.1669895300000004  2.3821303399999998  6.7395369199999999
 -2.0911865399999998  5.9304471400000001  6.7748516299999997
  2.0310791099999999  5.9199602999999996  6.8471870600000004
  6.2018290199999999  5.9631647399999999  6.7297610700000003
 -4.1183617600000000  9.6346064100000000  6.6998841699999998
  0.0427313900000000  9.7283296299999993  6.8225937300000004
  4.2416162200000000  9.5406656600000002  6.6723445300000002
  2.1321363700000000  1.0925282700000001  3.5398632600000002
  6.1261688000000003  1.0744285000000000  3.4793409199999998
 10.2943602500000004  1.3095380500000000  3.4725242900000000
 -0.0226291800000000  4.6160935299999997  3.2162116699999999
  4.1203937100000001  4.8977637400000003  3.3299731000000001
  8.1903581200000009  4.7596976599999996  3.3566707700000000
 -1.8989027100000000  8.2786697199999999  3.3963458399999999
  2.1153592500000000  8.3242622399999995  3.3636825300000002
  6.1958758500000002  8.2694790200000003  3.3965159599999999
  2.0414396199999998  1.1395479300000000  9.9773153400000005
  6.2914986700000002  1.1619489599999999  9.9995835199999998
 10.3349576600000006  1.1886614700000000 10.0888760000000008
 -0.0274291700000000  4.7144991799999998 10.2533529899999998
  4.1415970800000004  4.7442849799999998 10.0739345300000007
  8.3984337500000006  4.8187371600000004 10.2922108300000001
 -2.0427519200000002  8.4031696399999998 10.0057043500000002
  2.0961045000000000  8.2682045599999991 10.1035729900000000
  6.1630523400000001  8.3531839500000000 10.1214875400000004
 -0.0781064200000000  2.3209506800000002  2.5550131299999999
  4.1636935299999998  2.2698090600000000  2.6658988400000001
  8.3225659299999997  2.4338564699999998  2.5435499699999999
 -2.1566735600000002  5.8353950299999999  2.4760985600000001
  2.0596724300000000  6.1220428199999999  2.4339751600000001
  6.2389316900000003  5.9492186100000000  2.3430943399999999
 -4.0091991399999998  9.5377177599999996  2.3411152000000000
 -0.0005065100000000  9.6465931800000000  2.4091922000000001
  4.0801097700000000  9.5252132599999992  2.4913789300000002
  0.0297345400000000  2.3554070999999999  9.2651973499999993
  4.2964994699999997  2.2197416599999999  9.3168237499999993
  8.3100124300000004  2.4230535400000002  9.3126983200000009
 -1.9714256100000001  5.8688747299999999  9.3949746100000002
  2.1314465600000001  6.0563881600000000  9.4188521099999996
  6.3687965000000002  6.0189044999999997  9.2275124399999999
 -4.1285898100000002  9.5492836600000004  9.2497548100000007
 -0.0302213300000000  9.4577783400000008  9.3383448999999992
  4.1286734500000000  9.5156876799999992  9.2882997100000004
  2.1803674700000002  1.2188782499999999  5.8284953000000002
  6.1710385600000004  1.2389448999999999  5.8576197900000002
 10.3767820299999993  1.0918650599999999  5.9344998200000001
 -0.0713733700000000  4.8591624900000001  5.8940571300000002
  4.1454319599999998  4.7743138700000003  5.9336273100000003
  8.4125476300000006  4.7652182999999999  5.9892642900000004
 -2.1814895900000000  8.3045291799999994  5.8601493500000004
  1.9402313600000001  8.4672572600000002  5.8567775400000004
  6.1163444299999998  8.4572129900000004  5.9543561100000000
  2.0449213600000000  1.2623849400000000 12.7097395599999992
  6.1737874000000001  1.1583313099999999 12.5716222900000005
 10.1952748500000006  1.1505895399999999 12.7145239300000004
 -0.0537632400000000  4.7613385600000004 12.4867953299999996
  4.3617492699999998  4.7667379900000002 12.6836244499999999
  8.2773414800000005  4.8322719599999999 12.6076067100000007
 -2.0052167600000002  8.3763392499999991 12.5438161000000008
  2.1052160000000000  8.3107145500000001 12.6093330199999993
  6.0691179799999997  8.4065588200000008 12.7058126199999997
