Cd S 
 1.0000000000000000
    12.3977854500000007    0.0000000000000000    0.0000000000000000
    -6.1988927199999999   10.7367971499999992    0.0000000000000000
     0.0000000000000000    0.0000000000000000   13.4479464199999992
 Cd  S  
  36  36
Cartesian
  0.1158643100000000  2.1716764500000001  0.0338628700000000
  4.1084195499999998  2.3497218599999998  0.1792089500000000
  8.2740197999999996  2.3811645700000001  0.0196594200000000
 -2.0688686700000001  5.9962171099999999  0.0223467200000000
  2.0385193300000002  5.9193610799999998  0.0331838800000000
  6.1135730300000004  5.9726088300000004 13.4234776100000008
 -4.1518673399999999  9.6181985399999999 13.3257796299999995
 -0.2089543800000000  9.6123119799999994 13.4060700500000003
  4.0660931400000004  9.5526325700000001  0.0235333700000000
 -0.0457738600000000  2.4175191500000000  6.7533908599999997
  3.9597172299999999  2.5105626200000000  6.6535929800000000
  8.2764652600000002  2.4210234300000000  6.7601783099999997
 -1.8987033000000000  5.9983656500000002  6.8712743500000002
  2.1544052100000002  5.9442319000000001  6.7037286700000003
  6.0487150700000001  6.0102723300000003  6.8663993300000001
 -4.0747340200000002  9.5205250400000008  6.7144577099999996
  0.0827843600000000  9.5409079899999991  6.6239654000000003
  4.1904084700000004  9.7464474400000007  6.7732432600000001
  2.0891536799999999  1.1895400599999999  3.3233595299999998
  6.3381102499999997  1.3457348000000000  3.3861615700000001
 10.2042273600000009  1.2741442000000001  3.1775021600000000
  0.0406003900000000  4.7876501600000001  3.3734909200000001
  3.9915552999999999  4.8096051900000001  3.4168694199999998
  8.1051556399999996  4.6539684399999999  3.2630624400000001
 -2.0963232500000002  8.3362527699999998  3.3144865800000001
  2.0796349099999998  8.2765414699999997  3.3335944899999999
  6.0799728000000002  8.4194785200000002  3.5425219200000000
  2.0187152899999998  1.1832476599999999  9.8957710199999998
  6.3136880399999997  1.0054894599999999 10.1346908700000000
 10.3322186200000008  1.1812049800000000 10.0968760500000005
  0.0613543500000000  4.7502009599999999 10.1071435600000008
  4.0942060500000004  4.9942831500000002 10.0379866900000003
  8.2976268599999994  4.7625416200000004 10.0235304099999993
 -2.1234678900000001  8.2719003799999999 10.0794111999999991
  2.1168988099999999  8.3486717000000006  9.8695697199999994
  6.2109470299999998  8.3760877899999997 10.0230961799999996
  0.0227943800000000  2.3751430500000001  2.5582718400000002
  4.2151181800000002  2.3716127899999999  2.4824225900000001
  8.2666106900000003  2.3940129699999999  2.5406851499999998
 -1.9272348200000000  5.9175549299999997  2.4390760999999999
  2.0383303800000001  5.9519468299999998  2.4587524599999999
  6.0189174200000002  5.9970494299999997  2.4410433999999999
 -4.1526276900000001  9.5515816499999993  2.5647641000000001
  0.1096966600000000  9.4300143799999994  2.6786454800000001
  4.2242979399999996  9.5639867299999999  2.5760574200000002
  0.0592304800000000  2.4291038299999999  9.2932878300000006
  4.1952175000000000  2.4207561900000001  9.3048010199999993
  8.3319942000000005  2.2969498599999998  9.2029852699999992
 -2.0698205100000000  5.9741412900000004  9.2658985299999994
  2.0383962200000001  5.9043682200000003  9.1872931300000005
  6.2151874500000002  5.7852741600000002  9.2129130799999999
 -4.1233332799999998  9.5679186600000001  9.2962510799999993
 -0.0354174900000000  9.6579474500000000  9.3411385800000009
  4.1394034199999998  9.5464407700000002  9.2990824100000005
  2.2529971099999999  1.1631095000000000  5.9723760900000000
  6.1909800900000000  1.1990573800000000  5.9203220500000002
 10.4592739800000007  1.0846047299999999  5.9236455699999997
 -0.1153883600000000  4.7959498099999998  5.7690022599999997
  4.1049404200000001  4.8319305300000002  5.8781125799999998
  8.0711319600000007  4.7055936500000000  5.9105991800000002
 -2.2281451799999998  8.4344487200000007  5.9701668600000000
  2.2261580799999998  8.1924084599999993  5.8589518099999998
  6.1258260699999996  8.3104065100000000  6.0679571000000001
  2.1014431099999999  1.1898750499999999 12.6862882199999998
  6.0220391199999996  1.2674218900000001 12.5315170200000008
 10.2752193100000007  1.0490917000000000 12.5103551900000003
 -0.0646228300000000  4.8766792499999996 12.5460211600000004
  4.2953900599999999  4.6235856699999998 12.6965133699999999
  8.3711204899999991  4.6854719200000003 12.6895012000000005
 -2.0106355200000001  8.3391400000000004 12.6628409200000007
  2.1615538999999999  8.4399467200000000 12.6794970100000004
  6.1599899699999998  8.3521450500000007 12.6262534899999999
