Cd S 
 1.0000000000000000
    12.3977854500000007    0.0000000000000000    0.0000000000000000
    -6.1988927199999999   10.7367971499999992    0.0000000000000000
     0.0000000000000000    0.0000000000000000   13.4479464199999992
 Cd  S  
  36  36
Cartesian
  0.0783318800000000  2.4667552000000001  0.0572472400000000
  3.9818939499999999  2.3126633700000001  0.1076775700000000
  8.2728123799999995  2.3091657500000000  0.0256022000000000
 -1.9385784800000001  6.1000249799999997 13.4254228599999994
  1.9928580400000000  6.0439974699999999  0.0337651000000000
  6.1680785299999998  5.9672775800000002 13.2064323300000002
 -4.0904963800000003  9.6064178099999999  0.0386194100000000
 -0.0448584100000000  9.5032265500000008 13.4252308199999995
  4.2193808500000003  9.5353091800000005  0.0817682200000000
 -0.0170768900000000  2.4832095600000001  6.6168114999999998
  4.1245252700000004  2.3766355699999999  6.6328792400000003
  8.4624254699999995  2.4139708500000001  6.6048162000000001
 -2.0929416900000000  6.0273523200000003  6.7164141199999996
  2.2068664400000002  5.8304317299999999  6.7247998600000001
  6.2000530999999999  5.9613842600000000  6.7275976999999996
 -4.0564744399999997  9.3747079499999995  6.5680246400000000
  0.0256255500000000  9.4956101900000007  6.9559346900000003
  4.0393838500000001  9.4509078599999992  6.8772020700000001
  2.2198210700000001  1.2642483099999999  3.2813375200000001
  6.1986776199999998  1.1787171599999999  3.3438917199999998
 10.3312428500000006  1.2057161199999999  3.3701177699999998
  0.0470526400000000  4.7443412399999998  3.3589097099999998
  4.0994402100000000  4.6665171799999996  3.3517186899999998
  8.3974630599999998  4.7719027100000000  3.4403736100000000
 -2.0627549500000000  8.3606771599999998  3.3512802900000001
  2.0717432900000001  8.3086473900000009  3.2436039299999999
  6.3379404600000004  8.3273578700000002  3.4416378500000002
  1.8928616500000000  1.2576081400000001 10.1731025099999997
  6.1863245300000003  1.1938056900000000 10.1103350200000008
 10.3423916899999995  1.1969576900000001 10.0969552599999997
 -0.0504443600000000  4.7702035000000000 10.2968938100000003
  4.0040331100000000  4.8694897800000003 10.2066941300000007
  8.3045308700000007  4.7517782999999998 10.1393807099999993
 -2.0946007600000001  8.3942345899999999 10.1494608799999995
  1.9542754499999999  8.2839938800000006 10.0169655300000002
  6.1912719999999997  8.3536300600000004 10.0898759899999995
 -0.1106268600000000  2.5350528300000001  2.3899039499999999
  3.9780469200000002  2.3880490000000001  2.6116462000000000
  8.3679205000000003  2.2454284800000002  2.4663177400000000
 -2.0864165500000000  5.9590013300000004  2.5051742300000002
  2.1502112200000001  5.9412667199999998  2.5147849400000002
  6.3089865500000002  5.9341416799999998  2.3659173899999999
 -4.1444374100000001  9.4917891799999996  2.4186038800000000
 -0.0131280700000000  9.4473652500000007  2.5341814500000002
  4.1525667700000000  9.7075829099999993  2.5934674000000002
  0.1288111300000000  2.4595638000000002  9.1771788000000001
  4.2139578699999998  2.3193602400000000  9.4309302499999994
  8.1000163199999999  2.4669282799999999  9.1576144500000005
 -2.1087667899999998  6.1705718500000000  9.2549847100000004
  2.1111981800000001  5.9798892400000003  9.3164953500000003
  6.2099167800000004  6.0365115600000001  9.2924984300000002
 -4.1480317099999997  9.5443983100000001  9.2701441800000008
 -0.0295543300000000  9.5811432799999992  9.3982360000000007
  4.3327745899999996  9.4645197599999999  9.1648966499999993
  2.0669369700000000  1.0973208500000000  5.7444171300000004
  6.2063201100000001  1.1909708500000000  5.9074057000000000
 10.1574449300000005  1.2344721599999999  6.0364259699999998
 -0.0499624500000000  4.7521787800000004  5.9568780099999996
  4.1359808200000003  4.7690684100000000  5.9012310799999996
  8.2410607799999998  4.9481126599999996  6.0105593800000001
 -2.0199492399999999  8.4014422000000000  5.9925770600000003
  2.1338866900000002  8.4430806799999996  5.8916564100000004
  6.2495279500000001  8.3345552800000000  5.9126147600000003
  1.9630435300000000  1.0635100399999999 12.6297425600000004
  6.2199402600000004  1.1504260200000000 12.5378976600000005
 10.2993864300000002  1.0070822600000000 12.5808962599999994
 -0.0251410900000000  4.7777607099999999 12.6402093700000009
  4.3516427799999997  4.8214955499999999 12.6023843299999996
  8.1759514600000003  4.6156732900000002 12.7480662000000002
 -2.0769905799999999  8.4171443400000001 12.7430791699999997
  2.0579483299999999  8.4652011700000003 12.7655246000000009
  6.1135685000000004  8.4182161900000008 12.6717310899999998
