Cd S 
 1.0000000000000000
    12.3977854500000007    0.0000000000000000    0.0000000000000000
    -6.1988927199999999   10.7367971499999992    0.0000000000000000
     0.0000000000000000    0.0000000000000000   13.4479464199999992
 Cd  S  
  36  36
Cartesian
 -0.0649692900000000  2.2476508900000001  0.1362204400000000
  4.1597965900000000  2.4097704000000002 13.4368303499999993
  8.3028533899999992  2.2329348200000001  0.1399565400000000
 -2.1219247999999999  6.1569767100000004  0.0880812200000000
  1.9401572199999999  6.0332096699999997 13.3470382700000005
  6.2284579100000004  5.9380950700000001 13.4301600299999997
 -4.1353102799999997  9.5481985999999992  0.0022862900000000
  0.0164371100000000  9.5265732900000000 13.4265250500000004
  4.1559712600000003  9.5661283000000008 13.4429109699999998
  0.0140529500000000  2.3838200999999999  6.7485095299999998
  4.1442575200000000  2.3589178199999998  6.6636219199999998
  8.2653636000000006  2.3860252200000001  6.7256817699999996
 -2.0895017400000002  5.9096580200000002  6.6779954899999998
  2.0430381999999998  6.0795184500000001  6.7169441000000001
  6.3155876299999996  5.9329967000000003  6.6454116499999998
 -4.1096297599999998  9.4917483800000007  6.7559676199999998
  0.1363321900000000  9.6115042600000002  6.5339643499999998
  4.1758471400000001  9.5434738699999997  6.7247679800000002
  1.9108714200000001  1.2398988600000000  3.4336361900000001
  6.0289138800000002  1.0776637099999999  3.3973027999999998
 10.3282775499999993  1.3025190900000001  3.2831603899999999
  0.0404210000000000  4.9453771399999997  3.2905360500000000
  4.3212318200000004  4.6262328300000002  3.3305759699999999
  8.0702725500000003  4.6872309300000001  3.2647025500000000
 -2.0611745400000001  8.3579441100000000  3.3478155599999999
  2.0845172800000000  8.3510919900000005  3.3859667099999999
  6.2197825599999996  8.3489490300000000  3.4569295100000001
  2.0674632599999998  1.1921332099999999 10.0870345700000001
  6.1297148200000002  1.2897790200000001 10.2031569199999996
 10.4678130800000009  1.2650877100000000 10.0930531999999999
 -0.0504177600000000  4.7475556299999999 10.1190716199999997
  4.1884240699999999  4.7183503599999996 10.1235453500000006
  8.2227458400000000  4.8171027999999998 10.1882283499999993
 -2.1066799299999999  8.4753654800000007 10.0564043200000004
  1.9577196100000001  8.4085406200000001  9.9952801800000000
  6.1139551900000004  8.3247684799999995 10.1448946299999996
 -0.0149256900000000  2.3263216500000001  2.6623456299999999
  4.3336586099999996  2.3786683700000002  2.6407814400000000
  8.2463767699999995  2.4061936500000001  2.5134413599999998
 -2.0189149500000001  6.0808884599999997  2.5044738600000001
  2.0480611600000000  5.9744655399999997  2.4663970800000001
  6.2008874100000000  5.9941470600000004  2.3883388800000001
 -4.1677345800000003  9.5993633000000003  2.6397794399999999
 -0.1838209100000000  9.5709971100000004  2.4483636500000001
  4.1071832500000003  9.5493801800000000  2.5656637700000000
  0.0830961600000000  2.1712215300000000  9.3377534600000001
  4.2055349399999997  2.3529799400000000  9.3105151799999994
  8.2161750799999993  2.3041718599999998  9.1698748099999996
 -2.1441684099999998  5.9872176399999999  9.1315314900000004
  2.2487433100000001  6.0903481199999998  9.2236588000000008
  5.9933690000000004  5.9196458200000004  9.1458990100000008
 -4.0624424200000000  9.3405966100000004  9.1775218499999998
  0.1346403900000000  9.5338574600000001  9.1999772300000000
  4.2090690500000001  9.3948797099999997  9.1585798799999996
  2.0786383100000001  1.1537679500000000  6.0180014799999997
  6.2317221199999997  1.2169651699999999  5.8876358700000004
 10.3203820799999999  1.2460913100000000  5.8905804399999999
  0.0694063400000000  4.7511397799999999  5.8898992999999997
  4.1157509799999996  4.7809622100000002  5.9164119199999998
  8.1788117499999995  4.7727652999999997  5.9151907200000000
 -2.0165027100000001  8.3081496300000008  5.9225915200000001
  2.0826125499999999  8.4250997699999992  5.9624045700000003
  6.0954122599999998  8.4332271999999993  5.7210229500000001
  2.0897974300000000  1.0360097699999999 12.4306055099999995
  6.2095426700000003  1.2022571600000000 12.6180911299999998
 10.2929590500000003  1.2340849899999999 12.6259810399999992
  0.0058594400000000  4.7793173299999996 12.6251627299999996
  4.1405126499999998  4.7568463899999998 12.6457731899999999
  8.2497174700000002  4.7230306400000002 12.6243879999999997
 -2.0991155400000001  8.3415349499999998 12.6887634499999997
  2.2619980300000000  8.2510325600000005 12.5173249900000005
  6.2978105700000002  8.2643659399999994 12.6066821600000001
