Cd S 
 1.0000000000000000
    12.3977854500000007    0.0000000000000000    0.0000000000000000
    -6.1988927199999999   10.7367971499999992    0.0000000000000000
     0.0000000000000000    0.0000000000000000   13.4479464199999992
 Cd  S  
  36  36
Cartesian
  0.0317905900000000  2.3962226000000002  0.0322834100000000
  4.1545256100000003  2.4045107699999999  0.0593619300000000
  8.2032249700000008  2.3440506800000001  0.0694450600000000
 -1.9270451300000000  5.9054798999999996 13.3861311900000004
  1.9772243000000000  5.8941839299999996  0.1470075700000000
  6.2168080899999998  5.9967585699999999  0.0106230700000000
 -4.1327644000000001  9.5445281099999999 13.4309198399999996
 -0.0615556800000000  9.7464265000000001 13.4120182099999994
  4.1064189200000003  9.5847486899999996  0.0298108700000000
  0.1717133000000000  2.2473074199999998  6.7369987599999996
  4.1096066999999996  2.3435027800000001  6.7530553400000004
  8.4016580399999992  2.4102723500000001  6.8777714599999999
 -2.2018142100000002  5.8670878000000002  6.7086223800000004
  2.0839885200000001  5.9741942200000002  6.7120120700000001
  6.2469121999999997  5.9546931900000004  6.6764669899999998
 -4.1092288100000003  9.5086466000000005  6.7022121500000003
  0.0199622400000000  9.5991116299999995  6.7671743299999996
  4.1490759199999996  9.5112247199999995  6.7569903399999998
  1.9554245299999999  1.1929445900000000  3.3028066300000001
  6.1714364000000002  1.1178911600000001  3.3755012500000001
 10.3344272900000007  1.1966837900000000  3.3540779999999999
 -0.0244339300000000  4.7426357000000001  3.4098083099999998
  4.0321172000000001  4.7444342300000004  3.3985312599999999
  8.2411659799999999  4.7539560500000002  3.3199370300000002
 -1.9787017400000000  8.3610425300000006  3.2932866900000000
  2.1281701900000001  8.4274910700000003  3.3842319299999999
  6.2357215899999998  8.3386469699999992  3.3631210700000000
  2.0570837100000001  1.2089373800000001 10.0832813899999998
  6.1368895400000003  1.2047356400000000 10.0505707399999995
 10.2247636699999997  1.2473848800000000  9.9512862999999996
  0.1013663400000000  4.9569854400000004 10.0327039300000003
  3.9745573799999998  4.8677377499999999 10.1555451399999992
  8.1605575600000009  4.6860054299999998 10.0884613999999999
 -2.0659427300000002  8.3508178799999992 10.0867485400000003
  2.0469358700000000  8.2752816100000004 10.0366451199999993
  6.1050764500000003  8.3517383400000007 10.0859428700000002
  0.1224113300000000  2.4356996600000000  2.4366568100000001
  4.1844548599999998  2.3194171400000001  2.7655533700000001
  8.1776914200000004  2.2963948699999999  2.3539581300000001
 -2.1859154799999998  5.9212486100000001  2.5447477699999999
  2.1563763300000001  5.8078370000000001  2.5700319299999999
  6.0816131499999999  5.9278900700000001  2.6115852799999999
 -3.9043483399999999  9.4948605500000003  2.5442323099999999
 -0.0560970000000000  9.3849927300000004  2.7047824999999999
  4.2011266000000003  9.5311649900000006  2.3254248099999999
 -0.1236605900000000  2.3912691800000001  9.0528706900000007
  4.3115376799999998  2.3744553599999998  9.1736613499999997
  8.2561031400000005  2.3630445099999999  9.2556622199999996
 -1.9406122699999999  5.9323088000000004  9.2635796999999993
  1.9244213900000000  5.8087587500000000  9.1576190299999993
  6.0544143899999998  5.9161472300000000  9.2233004100000002
 -4.1567687400000004  9.5484930000000006  9.1499487199999994
  0.1361633900000000  9.6910328900000007  9.4025521199999993
  4.1643106899999998  9.5765613500000004  9.2878681699999994
  2.0913394699999999  1.1739924300000000  5.8727780400000000
  6.2189100000000002  1.1649769600000000  5.9010176599999999
 10.3167931100000008  1.1336028499999999  5.8908360799999997
  0.0278697900000000  4.8728493300000002  6.0721442500000000
  4.0993362500000003  4.8649017299999997  6.0102952700000003
  8.1411882500000008  4.7298006199999998  5.8423164300000003
 -2.0650293199999998  8.4113423899999997  5.8117854199999996
  2.0510565900000000  8.3992099099999997  5.8508792700000001
  6.2011692099999998  8.3525639999999992  5.8937643700000004
  2.0352654000000001  1.2561141100000000 12.4931180200000007
  6.1213792900000001  1.1771848000000000 12.6194625499999997
 10.3584458300000009  1.1491177400000001 12.6889844000000007
  0.0038139900000000  4.7490115399999997 12.6515430299999991
  4.1582652199999997  4.8397062300000000 12.6371549400000003
  8.1729903700000008  4.6848090300000003 12.5124880399999991
 -2.0510060000000001  8.3977578699999995 12.4830371699999993
  2.0162048600000002  8.3385355200000006 12.5849313200000008
  6.1979350599999998  8.3371093500000004 12.6500720900000001
