Cd S 
 1.0000000000000000
    12.3977854500000007    0.0000000000000000    0.0000000000000000
    -6.1988927199999999   10.7367971499999992    0.0000000000000000
     0.0000000000000000    0.0000000000000000   13.4479464199999992
 Cd  S  
  36  36
Cartesian
 -0.0532414200000000  2.5527295699999999  0.1361665100000000
  4.1576129100000001  2.4845896700000001  0.0790015700000000
  8.2584907699999999  2.5728042699999998 13.2956578400000005
 -1.9420874200000000  5.9495723900000002 13.3039767399999995
  2.0699662499999998  5.9669720100000001  0.0796765300000000
  6.2356183800000000  5.8829596899999999 13.4351301200000002
 -4.1205626799999999  9.5315790000000007 13.4403964699999996
 -0.0467304100000000  9.5568378500000009 13.4472678400000003
  4.0143480699999996  9.3548271599999993  0.0891042100000000
  0.0127751100000000  2.4179197399999999  6.7194307599999998
  4.0826925400000000  2.3516772399999999  6.6846694299999996
  8.3058204900000003  2.4597422500000001  6.7136333500000003
 -2.0695489899999999  5.9830197600000004  6.7145631400000001
  2.0130777700000002  6.0440231300000002  6.7334515899999996
  6.3279659500000003  5.8375089999999998  6.7549595599999996
 -4.1095747100000004  9.6700200100000000  6.7098407599999996
  0.0475632400000000  9.6985546599999992  6.8681115300000002
  4.1458095999999998  9.6005099900000008  6.6899431800000002
  1.9271694200000000  1.2614070300000000  3.4657887500000002
  6.2168108100000001  1.2061149900000001  3.3668230200000000
 10.3415066699999993  1.1990542600000000  3.3718455600000001
 -0.1434286100000000  4.7741484200000004  3.2171215599999998
  4.1811470100000001  4.8117097099999997  3.3125340699999999
  8.3775637500000002  4.6668457300000004  3.4249334800000000
 -1.8951993700000000  8.4165954700000007  3.5276716299999999
  1.9564132599999999  8.4071557899999991  3.2881386899999998
  6.2682757599999999  8.4864723699999995  3.3083606300000001
  2.1817343899999999  1.1179883300000000 10.0722126500000009
  6.2605089100000004  1.2047007400000000  9.9937386400000001
 10.3185488900000006  1.1823217100000001 10.0807570700000007
  0.0235967700000000  4.6416895199999999  9.9837149400000005
  4.1176677399999999  4.7696081499999998 10.0921617399999999
  8.1362349599999995  4.7048317600000003 10.1279280299999996
 -2.1149684700000000  8.3310416699999994 10.1377670900000005
  2.0599382400000001  8.3425329399999999 10.1590246600000000
  6.2765310699999999  8.2786071200000002 10.0846295399999999
  0.0093005700000000  2.4056060300000000  2.5383739799999998
  4.1972586700000001  2.1760673700000002  2.4533449100000002
  8.3503029400000006  2.5606229400000000  2.3962391400000000
 -2.0489303600000000  5.9622550099999998  2.3397347700000002
  1.8512305099999999  6.0047432000000001  2.5605756000000000
  5.9969564799999997  6.0159985899999997  2.5974076500000001
 -4.2478755399999999  9.6802385500000003  2.3997727300000000
  0.0979621600000000  9.6313690500000000  2.5144326100000001
  4.0063054400000002  9.5064291300000008  2.4272857399999999
  0.0391852500000000  2.2530959500000001  9.3000037300000002
  4.1500012899999996  2.4302975500000001  9.4187946900000004
  8.3150461100000008  2.3602927700000000  9.2488603800000000
 -1.9807786199999999  5.8711075499999996  9.1756333600000008
  2.1692880699999999  5.9071647199999999  9.0755618100000000
  6.1838453500000004  5.9439487700000004  9.2904016299999999
 -4.0776716700000000  9.7121981300000009  9.0929756899999994
  0.0429039700000000  9.4270778600000007  9.2272026000000000
  4.1192518099999997  9.5557553700000000  9.2550943100000005
  2.0963930500000001  0.9866746199999999  5.9423604100000000
  6.2325544500000003  1.0377593300000001  5.9520149599999996
 10.2239881199999996  1.1282338100000000  5.7721890199999999
  0.0108535800000000  4.7931586700000004  5.8722160600000004
  4.0691387800000003  4.7550901699999999  6.0527973700000004
  8.1605679700000007  4.8421027900000002  5.7724419800000000
 -2.0663929500000000  8.3438044999999992  5.8570848299999998
  2.1874622900000000  8.2912032100000008  5.8344959100000002
  6.1801190699999999  8.4663868299999994  6.0456920099999998
  2.0611255100000001  1.1907595500000001 12.6110574500000006
  6.1455184599999999  1.2136105699999999 12.5171777399999993
 10.2262815299999996  1.1875014699999999 12.4256276200000002
  0.0120793500000000  4.8688601800000004 12.6772671999999993
  4.0597605999999997  4.6586247800000002 12.6743975500000001
  8.4013428900000005  4.7598417399999997 12.5365751900000006
 -2.0677864000000001  8.3769682099999994 12.6194180399999993
  1.8796185200000000  8.2297931299999991 12.7107330899999997
  6.1649410199999997  8.5216481599999998 12.5348612500000005
