Cd S 
 1.0000000000000000
    12.3977854500000007    0.0000000000000000    0.0000000000000000
    -6.1988927199999999   10.7367971499999992    0.0000000000000000
     0.0000000000000000    0.0000000000000000   13.4479464199999992
 Cd  S  
  36  36
Cartesian
 -0.1198855300000000  2.4780084400000000 13.4096161400000007
  4.0581130600000002  2.5640787899999999  0.1050000900000000
  8.3794705900000004  2.3975037200000000  0.1018296000000000
 -2.1324768700000001  5.9747248400000004 13.3693552800000006
  2.0934886900000000  5.9759069599999997 13.4341396799999995
  6.2586271199999999  6.0967652899999996 13.2608104499999992
 -4.1340822199999998  9.6072437900000001 13.3534721800000007
  0.1905545200000000  9.6565434000000003 13.4334777699999997
  4.0974454099999997  9.6670052299999991  0.0306738200000000
  0.0052112900000000  2.2671213200000002  6.6226181899999998
  4.1712571699999996  2.3562510099999998  6.7375577900000003
  8.2786651899999999  2.3611594500000002  6.7293335599999997
 -2.0905311300000000  6.0673658899999996  6.7253567299999997
  2.0595244600000000  6.1470989600000001  6.8107166299999999
  6.1684003100000000  6.0494315800000003  6.9064886000000003
 -4.0581181400000004  9.4330534299999993  6.6631494900000003
 -0.1208855900000000  9.4816885400000004  6.5406261900000002
  4.1562969499999998  9.6113871199999998  6.8857705600000001
  1.8257023500000000  1.2228715900000000  3.3500062300000000
  6.2992327799999996  1.2204902799999999  3.5122274700000000
 10.2672455500000002  1.1346744900000001  3.3755762900000001
 -0.1559355000000000  4.8005884300000004  3.4841554200000000
  4.2693786999999999  4.7978074900000003  3.4133457900000002
  8.2551643800000001  4.8430191699999998  3.3869727500000000
 -2.0871340699999998  8.3431768200000000  3.3599530099999999
  2.0525883999999999  8.4478468499999995  3.3389337299999999
  6.3804208600000001  8.4720478099999994  3.3564166000000002
  2.0587070700000001  1.1584581100000000 10.2411769499999998
  6.3225660299999999  1.2390819000000000  9.9619370699999994
 10.3980254500000004  1.2390898500000000 10.0705711999999998
 -0.0073696100000000  4.7757572200000000 10.0897857599999998
  4.1425806600000001  4.6422872399999999 10.0214656200000007
  8.2852329800000000  5.0025986900000001 10.1055146100000002
 -2.0837916900000000  8.3208192699999994 10.1008304199999994
  2.1299524999999999  8.3243276200000000 10.1295942300000004
  6.1930293199999999  8.3264604900000005 10.0782749900000006
  0.0815111000000000  2.2951306100000002  2.5626316600000001
  4.1184772599999997  2.3472732199999999  2.5558222900000001
  8.4064409199999997  2.3091629600000001  2.4247179900000000
 -2.1008750400000000  6.0654265100000000  2.6842411700000000
  2.0566122800000000  6.0467740100000000  2.3640744800000002
  6.1305209200000004  5.9601674600000001  2.5522389500000000
 -4.1447769799999996  9.5964452500000004  2.6237929200000001
 -0.0727272000000000  9.6943081499999995  2.3804103699999999
  4.1040123900000003  9.5569148399999992  2.5189168199999998
 -0.0273314700000000  2.3728606200000000  9.2439669500000008
  4.1832513499999999  2.2454954699999998  9.2298234699999995
  8.2409596100000009  2.3813855300000002  9.2486640399999995
 -2.1068086199999998  5.9301067900000000  9.2321307400000006
  2.1743724000000002  6.0309067399999998  9.2509134799999995
  6.1508444300000003  6.0511587000000002  9.2078124100000007
 -4.1384325999999998  9.4318423100000004  9.3276122299999997
 -0.0228933700000000  9.5632860500000003  9.2820493800000001
  4.1856916000000002  9.4969498199999993  9.3040285699999998
  1.9011374200000000  1.1519730800000001  5.7719801700000000
  6.1971730899999997  1.1892363200000000  5.8977647299999996
 10.3757690000000000  1.1130330799999999  5.6902383099999998
 -0.0179966900000000  4.9014948900000004  6.0853891400000002
  4.0032578799999996  4.7387894599999996  5.8766244299999997
  8.2989323400000004  4.7784054500000002  5.9466066000000000
 -2.1063448800000000  8.3075528799999994  5.8147164000000000
  2.1752561199999998  8.4635237599999993  5.8214809900000004
  6.0449596600000000  8.3487864799999993  5.8311913500000001
  1.9657717900000000  1.2500361200000001 12.6474416800000000
  6.2245620300000004  1.0526189500000001 12.6160435399999997
 10.4317876500000004  1.1825564200000001 12.5282029000000001
  0.0139692100000000  4.8242351499999998 12.3891284099999996
  4.2339861799999996  4.7256848800000002 12.6443304899999998
  8.2966502799999997  4.7926703599999998 12.5837078200000008
 -2.1096053100000001  8.2879714300000007 12.7007587500000003
  2.0594958200000000  8.1167309000000003 12.5806723500000004
  6.2608056000000003  8.3745131300000004 12.6187557300000002
