Cd S 
 1.0000000000000000
    12.3977854500000007    0.0000000000000000    0.0000000000000000
    -6.1988927199999999   10.7367971499999992    0.0000000000000000
     0.0000000000000000    0.0000000000000000   13.4479464199999992
 Cd  S  
  36  36
Cartesian
 -0.0602599300000000  2.5213315199999999  0.0113399800000000
  3.9629880100000001  2.4596775100000001 13.3369416899999997
  8.2786485699999997  2.4815414900000001 13.2323212399999992
 -1.9711107600000000  5.9511427499999998 13.4228264599999996
  2.0664791199999999  5.9695074000000004 13.4367370200000007
  6.2329738099999998  6.1125416100000001 13.4141630299999992
 -4.2099477399999996  9.6752590299999994  0.1325192900000000
  0.1531170600000000  9.7021700699999993  0.0446930400000000
  4.2805952300000003  9.4984318200000004 13.3369051100000000
 -0.0788053400000000  2.4784982499999999  6.6346340599999998
  4.1227696199999997  2.4374505100000001  6.5912945599999997
  8.2747356500000002  2.3780640000000002  6.7404087500000003
 -2.2358274100000002  5.9121896500000002  6.7396344199999998
  2.0437871500000000  5.9914799299999997  6.7082344100000002
  6.0721093200000000  5.9949865700000000  6.6655659500000004
 -4.1215336799999998  9.5062210500000006  6.7204542900000002
 -0.0658825100000000  9.5701725300000007  6.9468908100000002
  4.1390934100000001  9.4375738299999998  6.6593726400000000
  2.0404614400000001  1.2072236800000000  3.3745451000000002
  6.1023678500000003  1.3541692000000001  3.4888038300000002
 10.3270748399999999  1.0739816300000000  3.2957244000000001
 -0.2289076900000000  4.7707035199999996  3.3820142299999998
  4.0950409800000003  4.7439954100000001  3.3784584600000001
  8.2721500900000002  4.7535900299999998  3.4575326500000001
 -2.0520911800000001  8.4667342699999999  3.1880473700000000
  2.0723682000000001  8.3742834700000000  3.3521803600000002
  6.1989715800000003  8.2790255300000002  3.2642461200000001
  1.8555435100000000  1.2336909500000000 10.0711516099999994
  6.2109759200000001  1.3686786900000001 10.0547650199999996
 10.3556272499999995  1.2081951399999999 10.0663730200000003
  0.1950071300000000  4.6425481399999997 10.0710339399999995
  4.1214115600000003  4.7659437899999997 10.0900108700000004
  8.2934451399999993  4.9129279600000002  9.9744916700000008
 -2.1253651900000001  8.3323873099999997  9.9984178499999992
  1.8398326000000000  8.3676519999999996  9.9979879199999999
  6.2912376999999999  8.2615429099999993 10.0036512599999998
  0.1396771700000000  2.2644543000000001  2.5333492899999999
  4.3542656500000003  2.3137675500000001  2.4701569900000000
  8.2010621199999996  2.4609528200000002  2.5959882099999998
 -1.9832172600000000  5.8705621199999998  2.5693459500000002
  2.0047876800000002  5.9146800500000003  2.5383949600000002
  6.1465832499999999  5.9583514400000004  2.5604595500000000
 -4.2364376500000001  9.5472870400000005  2.4926164100000001
  0.0209840000000000  9.6036673599999993  2.5650860400000002
  4.1059572299999996  9.6516428100000002  2.6945289799999999
 -0.0866920700000000  2.4849847800000000  9.2027173900000001
  4.1578978700000002  2.2769454900000001  9.1703261299999994
  8.2518915499999999  2.3612066899999999  9.2165216999999995
 -2.0578736300000000  5.9141397700000002  9.3396282399999997
  2.1351660200000002  5.8415736300000001  9.2391979000000006
  6.1725288999999997  5.9638949500000003  9.2925105400000003
 -4.1447376199999999  9.7282223699999992  9.2558558699999995
  0.0860332600000000  9.4195277500000003  9.4063163400000001
  4.1452330399999999  9.5299190899999999  9.1535812799999992
  2.0405169800000000  1.2989225799999999  5.9790209900000004
  6.0407887300000001  1.1863529500000001  5.7837988999999999
 10.3826916199999992  1.2098052300000000  5.9155525999999998
  0.1139947300000000  4.6377613499999999  6.0082268399999998
  4.1249052600000002  4.7740079800000004  5.9212979700000004
  8.4127287000000006  4.5884031199999997  5.9625851799999996
 -2.0967590999999999  8.3775244799999999  5.7050899499999996
  2.0814262700000001  8.4230195099999996  5.8752652400000001
  6.1989312200000004  8.3510474299999995  5.8953696500000001
  2.2422055799999998  1.2466158000000001 12.5382228300000005
  6.1894381699999999  1.1901765399999999 12.6113900200000000
 10.2905285299999996  1.1692745700000000 12.5146226299999999
  0.0967751900000000  4.7357859500000004 12.6568649200000003
  4.1205810999999999  4.7356622599999998 12.7473145999999993
  8.3597372799999992  4.5493826999999998 12.6245647000000005
 -2.2272517999999999  8.2357825499999997 12.5179547600000003
  2.2385611299999999  8.3670636199999997 12.5104494600000002
  6.2499353400000004  8.4659573600000009 12.7785301100000002
