Cd S 
 1.0000000000000000
    12.3977854500000007    0.0000000000000000    0.0000000000000000
    -6.1988927199999999   10.7367971499999992    0.0000000000000000
     0.0000000000000000    0.0000000000000000   13.4479464199999992
 Cd  S  
  36  36
Cartesian
  0.0434658300000000  2.3785693800000001  0.0207687400000000
  4.0668921200000003  2.3656014700000001  0.1316607700000000
  8.1583063700000000  2.5645208300000002 13.3523789900000001
 -2.0268758800000000  5.8622736399999997  0.0537175500000000
  2.1029414399999999  6.0694935000000001  0.0950277600000000
  6.1007707599999996  6.0245322999999997  0.1186274300000000
 -3.9822838599999999  9.6367661099999999 13.3365468600000003
  0.1198712800000000  9.5512914400000000 13.3428409000000006
  4.1330912099999999  9.5461573200000007 13.4394042799999998
 -0.0883645300000000  2.4935664900000001  6.7201428300000003
  4.1714469200000002  2.4206645999999998  6.9410940700000001
  8.2383994099999995  2.4279500600000001  6.7049961400000004
 -2.1023284900000001  5.9589759899999999  6.9521275700000000
  2.0508520899999998  5.9884084499999997  6.8036473199999996
  6.1712751099999998  5.9933537200000000  6.8016841899999996
 -4.1151051799999996  9.5267918900000002  6.7614553300000004
 -0.1599699800000000  9.6656994199999993  6.7492189099999997
  4.1559714500000000  9.5040076599999992  6.8822952099999997
  2.1817145500000001  1.2342354200000001  3.3394658700000002
  6.1173490800000003  0.9859215400000000  3.3119059100000001
 10.3478121200000004  1.2424445600000000  3.3790508400000001
 -0.0194138800000000  4.6543488499999999  3.2956508400000000
  4.1229572599999997  4.7966279399999996  3.3916012699999998
  8.1685213399999999  4.6468870899999999  3.3219329700000002
 -2.0143405400000001  8.1783108299999991  3.3643503500000000
  2.0124677399999999  8.1822913899999996  3.4642805600000002
  6.2332066399999997  8.2942405400000005  3.4775005600000002
  1.9973126800000001  1.2554699000000000 10.2165802600000006
  6.1882373900000003  1.1781847200000000 10.0992726099999999
 10.3296212900000004  1.1909155499999999 10.0826459699999997
 -0.0211025800000000  4.6513242899999998 10.1671067399999995
  3.9507538800000002  4.7893926300000000 10.2171179100000007
  8.4173618799999996  4.8461682799999997 10.0264685199999999
 -2.1067602000000001  8.5082103100000008 10.1774100199999999
  2.0896988099999998  8.3394874399999992  9.9883278600000001
  6.2098410299999998  8.3691486000000008 10.0835613700000000
  0.0486707900000000  2.3893620100000001  2.5760543199999999
  3.9751214099999999  2.2850285800000001  2.4422248000000000
  8.2076106899999992  2.4353931300000000  2.7145264800000000
 -1.9599435199999999  6.0975983500000002  2.6238177999999999
  2.1283983100000001  5.8947418200000001  2.6095276100000002
  6.1351060000000004  5.8719513599999997  2.5676805599999999
 -4.1698044500000000  9.4236705399999998  2.6102794800000000
 -0.0034359800000000  9.5189652999999996  2.3441438200000002
  4.2213848900000004  9.5985657700000004  2.6229682900000002
 -0.0139274900000000  2.3039750500000000  9.2887073200000003
  4.1899683400000001  2.3684156999999999  9.3804783900000004
  8.3329050000000002  2.3386164699999998  9.2165164599999994
 -2.0523227099999999  5.9648884300000002  9.3449576600000004
  2.0318009699999999  5.9222252299999996  9.1686628799999994
  6.1394245200000004  5.9802952999999999  9.2663990599999995
 -4.1413974700000002  9.5495119200000005  9.2494818100000007
 -0.0819342900000000  9.5979986499999992  9.3074912800000007
  4.1471207300000001  9.6739916600000004  9.3674741000000008
  2.0182298500000000  1.0469542199999999  5.9089456199999999
  6.2012730400000002  1.2084135300000001  5.9254360300000002
 10.4471281800000000  1.3005707900000001  5.9753461999999997
  0.0348914600000000  4.6710013000000004  5.7861565900000000
  4.0133171900000004  4.7648268399999996  5.8370311199999998
  8.2672042399999999  4.9440049799999999  6.0076138800000001
 -2.1090678600000001  8.4089785700000004  5.8315623800000003
  2.1654515100000000  8.1736460199999996  5.8766791600000001
  6.1264542700000000  8.4541090899999993  5.7365171300000002
  2.0573005400000000  1.3164533000000000 12.6447015199999999
  6.1189391000000004  0.9594901200000000 12.5839227200000003
 10.2065391699999992  1.2699989400000000 12.5903739699999999
 -0.0029653000000000  4.8160339499999996 12.5299124099999997
  4.2804008900000001  4.8648251800000004 12.4964484000000002
  8.3174301499999999  4.6920368300000002 12.5730220799999994
 -1.9656254200000001  8.3058981299999992 12.6688448900000008
  1.8769665099999999  8.3932082599999998 12.5710102700000004
  6.1956127099999998  8.3594302900000006 12.6181806900000009
