Cd S 
 1.0000000000000000
    12.3977854500000007    0.0000000000000000    0.0000000000000000
    -6.1988927199999999   10.7367971499999992    0.0000000000000000
     0.0000000000000000    0.0000000000000000   13.4479464199999992
 Cd  S  
  36  36
Cartesian
  0.0547620100000000  2.4252206500000000  0.1193918100000000
  4.1294183599999998  2.3153141800000001 13.2559896300000002
  8.2819067099999994  2.3622515900000001 13.4299920700000008
 -2.0417366100000001  5.9115259000000000  0.0175015600000000
  1.8746809799999999  5.9980600800000001  0.0033246000000000
  6.2079657399999997  5.9267295300000002 13.3736977499999998
 -3.9779619300000002  9.5093597400000007 13.2923297399999996
 -0.0682534600000000  9.6725425200000004 13.4002457499999998
  4.0906729300000002  9.4307038900000002 13.3294260399999995
  0.0367322200000000  2.3893396700000000  6.8217188000000002
  3.9246159999999999  2.4655979900000000  6.8182010899999996
  8.2502597499999997  2.3607286900000002  6.7913435199999999
 -2.0825865700000001  5.8981774900000001  6.5977667899999997
  2.0165205700000000  5.8097684400000000  6.7030726800000000
  6.2281589999999998  5.9015845899999997  6.7767296400000001
 -4.1368893299999998  9.5380165699999999  6.7179028100000000
 -0.0339944800000000  9.5212334500000004  6.8527537000000001
  4.3252178900000002  9.4111187899999997  6.6804204199999999
  2.1448491199999999  1.1056961999999999  3.4524627699999999
  6.2694745000000003  1.1923027500000001  3.2503732200000002
 10.4953358500000000  1.1717854800000000  3.3527935900000001
  0.0028902400000000  4.7762797800000003  3.3423942900000001
  4.0452800499999997  4.7549829099999998  3.3970241500000000
  8.3544548299999999  4.9102213199999998  3.4815381799999998
 -2.0792349500000000  8.1723423499999992  3.3262681900000000
  2.0656612999999999  8.3777408300000005  3.3308704800000002
  6.2240966799999997  8.2842756099999999  3.3048476299999998
  2.0923704100000000  1.2384968500000000 10.0874341100000002
  6.2130244000000001  1.1072104100000000  9.8953609900000004
 10.3489519699999999  1.2099453499999999 10.0827317700000005
  0.0165281100000000  4.7160301400000000 10.1469375100000008
  4.1479819999999998  4.7764658500000001 10.0814551600000009
  8.3250002999999992  4.8373652800000002 10.0339119599999993
 -2.2054035500000002  8.4793392700000005 10.0303287500000007
  2.0537038299999999  8.3640057799999994 10.0562994299999993
  6.2475294899999998  8.3957059600000008 10.1747778499999999
 -0.1776774400000000  2.3427671000000001  2.4986788700000000
  4.0820312999999997  2.3597591499999999  2.5370973700000001
  8.2686488899999997  2.4642509499999998  2.4905360100000000
 -2.1316544600000000  5.8290697700000003  2.3501679599999998
  2.0115157099999998  5.8913253699999997  2.4313460800000000
  6.2290280200000003  5.9100109400000003  2.5785957200000000
 -4.1305530600000004  9.5191816500000002  2.5122505400000001
 -0.0136207600000000  9.5985608300000003  2.5785419300000001
  4.1520755100000004  9.6587759000000002  2.4242614400000000
 -0.1312832500000000  2.3115276400000000  9.2518319800000004
  4.1326538099999999  2.3182747500000001  9.0708111900000006
  8.1073296500000005  2.3914973399999999  9.3506267800000007
 -2.0024484600000001  5.9132043799999998  9.4062029700000007
  2.1478778400000000  5.8814322700000004  9.3876856899999996
  6.2510313699999998  6.0006043800000004  9.2180475099999999
 -4.1769187399999996  9.5356047600000000  9.2458173800000001
 -0.0170628800000000  9.5167994799999995  9.2537784300000006
  4.0905642599999998  9.6917930600000002  9.2024160199999994
  2.1698615299999999  1.3652314299999999  5.9351626599999996
  6.1949532700000001  1.1957531299999999  5.8932161000000001
 10.2798420099999994  1.2498692700000000  5.8477768299999999
 -0.1420815300000000  4.8855827400000003  6.0406546800000003
  4.0499126099999998  4.7789356300000003  5.9364846000000000
  8.3655416799999998  4.7173575300000001  6.0618770199999998
 -2.0038034800000002  8.4036346500000008  5.8265136100000001
  1.9200484499999999  8.1723111100000008  5.8917595499999997
  6.2689508800000002  8.2727492300000005  5.8600198399999996
  2.0317405900000001  1.0536404500000001 12.6621491600000002
  6.1362265100000002  1.0272488700000000 12.6694942899999994
 10.3703297200000009  1.2582076799999999 12.5785204099999994
 -0.0043664400000000  4.5811359200000004 12.4912163399999994
  4.1039965799999996  4.7417352099999999 12.5426540699999993
  8.3479603800000000  4.8139511199999996 12.4921523200000006
 -2.0580882300000001  8.3166173099999998 12.7603907099999994
  1.9132539600000000  8.3623713199999994 12.7987445199999996
  6.1785281899999998  8.1866075899999995 12.6652224199999992
