Cd S 
 1.0000000000000000
    12.3977854500000007    0.0000000000000000    0.0000000000000000
    -6.1988927199999999   10.7367971499999992    0.0000000000000000
     0.0000000000000000    0.0000000000000000   13.4479464199999992
 Cd  S  
  36  36
Cartesian
 -0.0316187500000000  2.3864860499999998  0.0903503000000000
  4.2324175500000001  2.3143455099999999  0.0622709800000000
  8.4687161700000004  2.3324466699999999 13.4314796800000007
 -2.0597202200000000  6.0079176399999996  0.0982004000000000
  2.0547741899999998  5.9030325599999998 13.4309236100000007
  6.2337214500000000  5.8735099100000001 13.4465666600000002
 -4.1310968299999997  9.5531303300000001 13.3454094600000008
  0.0476684400000000  9.5763734599999992  0.0295052000000000
  4.1321145699999997  9.5327209699999997  0.0174050000000000
 -0.0466074300000000  2.4161127400000000  6.7524969800000001
  4.1809032699999999  2.4179298299999998  6.5862339600000004
  8.2133600999999992  2.3751254400000001  6.6937180200000004
 -2.0997067299999999  5.8645512300000000  6.6497525099999999
  2.1279990400000002  5.8738556300000004  6.8709287400000001
  6.2410477400000000  5.9460181800000003  6.7305445500000003
 -4.1782934000000003  9.4387824699999996  6.6206304500000002
 -0.0766574200000000  9.5488307799999994  6.6883660100000002
  4.0060747799999996  9.4000690200000001  6.8663511899999996
  2.0612569900000000  1.3093527300000001  3.4331084900000000
  6.2172134899999998  1.1948231000000000  3.3677249800000002
 10.3803285400000007  1.3457231000000001  3.3166500800000001
 -0.1133794200000000  4.6945242199999999  3.3115519600000001
  4.1364518099999996  4.6434635599999998  3.3250512799999998
  8.3156014099999993  4.6947166300000003  3.3859225999999998
 -2.1082098100000000  8.3116862299999994  3.3496967999999998
  1.9297887700000000  8.4363596600000008  3.2338431399999998
  6.3701825799999998  8.2258875099999997  3.2906253500000000
  2.0479623500000002  1.2540043299999999 10.1235882400000001
  6.3307389000000001  1.2840899100000001  9.9126889400000007
 10.3675751199999997  1.0713166500000000 10.1326778500000003
  0.1274739700000000  4.6025212499999997 10.0985253099999994
  4.1316461799999997  4.7731780300000004 10.0892787700000000
  8.4601866200000000  4.8545660599999998 10.1904383900000006
 -2.0871985400000002  8.3459117000000003 10.1024842499999998
  2.0608305699999998  8.3426073400000007 10.0886151099999992
  6.0364139899999998  8.2290056899999993 10.1351010299999995
 -0.0451139300000000  2.3750997800000002  2.5728523700000001
  4.1360625799999999  2.4187357399999998  2.5125201700000002
  8.2285905300000000  2.4639674999999999  2.6757673500000001
 -1.9448763700000000  5.9367626400000004  2.4769994400000002
  2.0279197799999999  6.1094267599999998  2.4462356500000002
  6.1527914399999997  5.9529727299999999  2.4892307499999999
 -4.0933999999999999  9.4951617200000005  2.5390208300000001
 -0.0420177600000000  9.5150991999999999  2.5811065800000002
  4.1565155200000001  9.4601333499999996  2.6046930700000002
  0.0117743000000000  2.3866244499999998  9.2689538999999996
  4.1877803199999999  2.2818750699999999  9.3007113599999993
  8.2721782899999994  2.3967132800000002  9.2247146000000004
 -2.1108452700000000  5.8637131199999999  9.1652085099999994
  2.1336318500000000  5.7506571099999997  9.2040030099999992
  6.2268510399999997  6.0621673500000002  9.4419550099999991
 -4.0756177300000003  9.6149010599999993  9.2334191800000003
 -0.0246517500000000  9.6422858999999992  9.4813928599999997
  4.1680070300000001  9.5524182599999996  9.2985676200000000
  1.9481055000000000  1.1618858299999999  5.6909749900000000
  6.0696163700000003  1.1728807400000001  5.8448982999999997
 10.4048786300000007  1.2799825499999999  5.9203672300000001
  0.0368089000000000  4.8698308900000002  5.8232965999999999
  4.1043355999999998  4.7322886500000001  5.8507059300000002
  8.2000190899999996  4.7295278999999999  5.9033754900000002
 -2.0614991699999998  8.4990525699999999  5.7706240800000002
  2.0444209799999999  8.3788326499999997  5.9247862299999996
  6.0918965600000003  8.4452059199999994  5.7854625500000001
  2.1810874700000000  1.0854717199999999 12.7335773900000007
  6.0934468900000001  1.1578249599999999 12.7419239900000001
 10.4432117800000004  1.0263277600000000 12.4807203599999994
 -0.1359161800000000  4.8230227499999998 12.6582425300000008
  4.0996218999999998  4.8689982499999998 12.5886668900000007
  8.1298641099999998  4.8487754900000004 12.5925967799999992
 -2.1106084100000002  8.2860282900000009 12.6061198999999995
  2.0436240500000000  8.3296544699999995 12.6077578599999995
  6.1117209900000002  8.2606242699999992 12.6882025400000007
