Cd S 
 1.0000000000000000
    12.3977854500000007    0.0000000000000000    0.0000000000000000
    -6.1988927199999999   10.7367971499999992    0.0000000000000000
     0.0000000000000000    0.0000000000000000   13.4479464199999992
 Cd  S  
  36  36
Cartesian
 -0.0177029200000000  2.5609056400000001 13.4095727000000000
  4.0502061800000000  2.2488040200000001  0.0457255700000000
  8.1879702400000003  2.3824525599999999 13.3922422000000001
 -2.0184197199999998  5.9631752599999999 13.3267351000000005
  2.0785534499999998  6.0152053499999996  0.1020011900000000
  6.2725864700000002  5.9828907100000004  0.2337110500000000
 -4.3527556599999997  9.4881682999999999 13.3960534800000008
 -0.0025602000000000  9.5528027499999997  0.0315720100000000
  4.1341342399999998  9.5397231799999993  0.0029437600000000
  0.0086441700000000  2.3748999700000000  6.7124888000000000
  4.1031326999999997  2.3260584899999999  6.7646582200000003
  8.1699085300000007  2.3209738700000000  6.7659758500000002
 -2.1851628100000000  6.0006480800000004  6.8539170900000004
  2.1700913800000001  6.0611627099999996  6.8275994500000001
  6.2008743900000001  5.9700953400000003  6.7040347499999999
 -4.0679293100000002  9.6908631399999994  6.8323632500000002
  0.0015158800000000  9.5455505800000005  6.7281943899999996
  4.2447089099999999  9.3833695400000003  6.8032015200000000
  2.0796149499999999  1.2335957200000001  3.3226878100000001
  6.2014539800000001  1.1614453000000000  3.3052823999999998
 10.4993258300000001  1.2081978300000000  3.3418137400000001
  0.0408973200000000  4.7705773599999999  3.4526252300000002
  4.1078964899999999  4.9228674500000000  3.3991750199999999
  8.2614000300000008  4.6901906400000000  3.3446793700000002
 -2.1037107800000001  8.3015472500000005  3.3692085600000001
  2.1950900299999998  8.3073921500000001  3.2025103700000002
  6.1802509800000003  8.3531900700000001  3.3813563499999999
  1.9861460000000000  1.2436828300000000 10.1344613100000007
  6.2900467000000004  1.1900283700000001 10.0223260199999995
 10.3451816799999996  1.2425779100000001 10.0440240099999993
  0.0602357600000000  4.9504827000000002  9.9540989300000007
  4.0681408799999996  4.9597919399999997 10.1462653799999991
  8.2339864200000008  4.6800797999999997 10.0937195499999994
 -1.8890735599999999  8.3723133799999996 10.0917870799999996
  2.0830145500000001  8.5192119799999997 10.2176817799999995
  6.1963430600000002  8.3712336799999996  9.9727921199999994
  0.0867076900000000  2.3870656200000000  2.3867627800000002
  4.1644543199999999  2.3931077500000000  2.5252826800000001
  8.3452290199999997  2.3716471499999998  2.4605620199999998
 -2.0709041300000002  5.9554288800000004  2.5293208300000001
  2.1784640400000002  5.9985153200000001  2.6120804299999998
  6.1431456500000001  5.9713793600000002  2.4353597599999999
 -4.1098987899999999  9.4920515900000009  2.5398567600000002
  0.0990527300000000  9.6527480499999996  2.5183607499999998
  4.1832126699999996  9.4941391399999997  2.5861535999999998
  0.1160575300000000  2.3256160299999999  9.1862713599999992
  4.3009228799999999  2.4523698299999999  9.4250926300000000
  8.2815681300000001  2.5425037399999999  9.2498052400000006
 -1.9956565200000000  6.0291369899999996  9.0862862799999995
  2.1075399699999999  5.8455534399999998  9.1340473299999996
  6.1612188300000001  6.0750464600000003  9.3451316799999997
 -4.0993535999999997  9.5199663999999995  9.2547582500000001
 -0.0386199700000000  9.3912941599999993  9.1239355500000006
  4.1475376700000002  9.5825463600000003  9.2641485499999998
  2.0809601700000000  1.1885193199999999  5.8592623200000000
  6.0806981300000000  1.3997518400000000  5.9082643499999996
 10.3620764600000008  1.1370715899999999  5.8896868199999997
  0.0253405800000000  4.6878617199999999  5.7722586800000002
  4.1690214799999996  4.7725562600000000  5.8651549400000000
  8.2147486500000007  4.8193281099999998  5.9313123799999996
 -2.1322587899999998  8.3247423900000008  6.0367415900000001
  2.0523143400000001  8.3586153700000008  5.9230338299999996
  6.1374814100000004  8.3183956499999994  5.8755555800000003
  2.1690472999999999  1.2795100200000000 12.6282150099999999
  6.1611225599999999  1.2154635199999999 12.6774221199999992
 10.3279455400000000  1.1940660500000000 12.6085128300000004
 -0.0501533200000000  4.8692346799999999 12.5599239199999992
  4.1230716899999997  4.7338752299999998 12.6229233799999996
  8.2362581299999995  4.7547493899999997 12.6189583899999995
 -2.0352347800000001  8.3219483499999996 12.5426736999999999
  2.1660266500000001  8.4214263900000006 12.5431489500000009
  6.3344682199999998  8.3563055599999991 12.4711538900000001
